c instance SDS(5,4,-1,[5])
c cardinality encoding seqcounter
c p_g/n_g are exclusive; exact counts fix support and nonnegative augmentation sign
c negative coefficient at identity is fixed by translation symmetry
c AND auxiliaries are encoded by three clauses each (full equivalence)
c each nonidentity equation is sum(same)+sum(not cross)=lambda+2v
p cnf 906 1878
-1 -6 0
-2 -7 0
-3 -8 0
-4 -9 0
-5 -10 0
1 11 0
-11 12 0
2 -11 13 0
-13 14 0
3 -13 15 0
-15 16 0
4 -15 0
2 12 0
3 -12 14 0
4 -14 16 0
5 -16 0
-1 17 0
-17 18 0
-2 -17 19 0
-19 20 0
-3 -19 0
-2 18 0
-18 21 0
-3 -18 20 0
-20 22 0
-4 -20 0
-3 21 0
-4 -21 22 0
-5 -22 0
6 23 0
-23 24 0
7 -23 25 0
-25 26 0
8 -25 27 0
-27 28 0
9 -27 0
7 24 0
8 -24 26 0
9 -26 28 0
10 -28 0
-6 29 0
-29 30 0
-7 -29 31 0
-31 32 0
-8 -31 0
-7 30 0
-30 33 0
-8 -30 32 0
-32 34 0
-9 -32 0
-8 33 0
-9 -33 34 0
-10 -34 0
6 0
-35 1 0
-35 5 0
35 -1 -5 0
-36 6 0
-36 10 0
36 -6 -10 0
-37 1 0
-37 10 0
37 -1 -10 0
-38 6 0
-38 5 0
38 -6 -5 0
-39 2 0
-39 1 0
39 -2 -1 0
-40 7 0
-40 6 0
40 -7 -6 0
-41 2 0
-41 6 0
41 -2 -6 0
-42 7 0
-42 1 0
42 -7 -1 0
-43 3 0
-43 2 0
43 -3 -2 0
-44 8 0
-44 7 0
44 -8 -7 0
-45 3 0
-45 7 0
45 -3 -7 0
-46 8 0
-46 2 0
46 -8 -2 0
-47 4 0
-47 3 0
47 -4 -3 0
-48 9 0
-48 8 0
48 -9 -8 0
-49 4 0
-49 8 0
49 -4 -8 0
-50 9 0
-50 3 0
50 -9 -3 0
-51 5 0
-51 4 0
51 -5 -4 0
-52 10 0
-52 9 0
52 -10 -9 0
-53 5 0
-53 9 0
53 -5 -9 0
-54 10 0
-54 4 0
54 -10 -4 0
35 55 0
-55 56 0
36 -55 57 0
-57 58 0
39 -57 59 0
-59 60 0
40 -59 61 0
-61 62 0
43 -61 63 0
-63 64 0
44 -63 65 0
-65 66 0
47 -65 67 0
-67 68 0
48 -67 69 0
-69 70 0
51 -69 71 0
-71 72 0
52 -71 73 0
-73 74 0
-37 -73 75 0
-75 76 0
-38 -75 0
36 56 0
-56 77 0
39 -56 58 0
-58 78 0
40 -58 60 0
-60 79 0
43 -60 62 0
-62 80 0
44 -62 64 0
-64 81 0
47 -64 66 0
-66 82 0
48 -66 68 0
-68 83 0
51 -68 70 0
-70 84 0
52 -70 72 0
-72 85 0
-37 -72 74 0
-74 86 0
-38 -74 76 0
-76 87 0
-41 -76 0
39 77 0
-77 88 0
40 -77 78 0
-78 89 0
43 -78 79 0
-79 90 0
44 -79 80 0
-80 91 0
47 -80 81 0
-81 92 0
48 -81 82 0
-82 93 0
51 -82 83 0
-83 94 0
52 -83 84 0
-84 95 0
-37 -84 85 0
-85 96 0
-38 -85 86 0
-86 97 0
-41 -86 87 0
-87 98 0
-42 -87 0
40 88 0
-88 99 0
43 -88 89 0
-89 100 0
44 -89 90 0
-90 101 0
47 -90 91 0
-91 102 0
48 -91 92 0
-92 103 0
51 -92 93 0
-93 104 0
52 -93 94 0
-94 105 0
-37 -94 95 0
-95 106 0
-38 -95 96 0
-96 107 0
-41 -96 97 0
-97 108 0
-42 -97 98 0
-98 109 0
-45 -98 0
43 99 0
-99 110 0
44 -99 100 0
-100 111 0
47 -100 101 0
-101 112 0
48 -101 102 0
-102 113 0
51 -102 103 0
-103 114 0
52 -103 104 0
-104 115 0
-37 -104 105 0
-105 116 0
-38 -105 106 0
-106 117 0
-41 -106 107 0
-107 118 0
-42 -107 108 0
-108 119 0
-45 -108 109 0
-109 120 0
-46 -109 0
44 110 0
-110 121 0
47 -110 111 0
-111 122 0
48 -111 112 0
-112 123 0
51 -112 113 0
-113 124 0
52 -113 114 0
-114 125 0
-37 -114 115 0
-115 126 0
-38 -115 116 0
-116 127 0
-41 -116 117 0
-117 128 0
-42 -117 118 0
-118 129 0
-45 -118 119 0
-119 130 0
-46 -119 120 0
-120 131 0
-49 -120 0
47 121 0
-121 132 0
48 -121 122 0
-122 133 0
51 -122 123 0
-123 134 0
52 -123 124 0
-124 135 0
-37 -124 125 0
-125 136 0
-38 -125 126 0
-126 137 0
-41 -126 127 0
-127 138 0
-42 -127 128 0
-128 139 0
-45 -128 129 0
-129 140 0
-46 -129 130 0
-130 141 0
-49 -130 131 0
-131 142 0
-50 -131 0
48 132 0
-132 143 0
51 -132 133 0
-133 144 0
52 -133 134 0
-134 145 0
-37 -134 135 0
-135 146 0
-38 -135 136 0
-136 147 0
-41 -136 137 0
-137 148 0
-42 -137 138 0
-138 149 0
-45 -138 139 0
-139 150 0
-46 -139 140 0
-140 151 0
-49 -140 141 0
-141 152 0
-50 -141 142 0
-142 153 0
-53 -142 0
51 143 0
52 -143 144 0
-37 -144 145 0
-38 -145 146 0
-41 -146 147 0
-42 -147 148 0
-45 -148 149 0
-46 -149 150 0
-49 -150 151 0
-50 -151 152 0
-53 -152 153 0
-54 -153 0
-35 154 0
-154 155 0
-36 -154 156 0
-156 157 0
-39 -156 158 0
-158 159 0
-40 -158 160 0
-160 161 0
-43 -160 162 0
-162 163 0
-44 -162 164 0
-164 165 0
-47 -164 166 0
-166 167 0
-48 -166 168 0
-168 169 0
-51 -168 170 0
-170 171 0
-52 -170 0
-36 155 0
-155 172 0
-39 -155 157 0
-157 173 0
-40 -157 159 0
-159 174 0
-43 -159 161 0
-161 175 0
-44 -161 163 0
-163 176 0
-47 -163 165 0
-165 177 0
-48 -165 167 0
-167 178 0
-51 -167 169 0
-169 179 0
-52 -169 171 0
-171 180 0
37 -171 0
-39 172 0
-172 181 0
-40 -172 173 0
-173 182 0
-43 -173 174 0
-174 183 0
-44 -174 175 0
-175 184 0
-47 -175 176 0
-176 185 0
-48 -176 177 0
-177 186 0
-51 -177 178 0
-178 187 0
-52 -178 179 0
-179 188 0
37 -179 180 0
-180 189 0
38 -180 0
-40 181 0
-181 190 0
-43 -181 182 0
-182 191 0
-44 -182 183 0
-183 192 0
-47 -183 184 0
-184 193 0
-48 -184 185 0
-185 194 0
-51 -185 186 0
-186 195 0
-52 -186 187 0
-187 196 0
37 -187 188 0
-188 197 0
38 -188 189 0
-189 198 0
41 -189 0
-43 190 0
-190 199 0
-44 -190 191 0
-191 200 0
-47 -191 192 0
-192 201 0
-48 -192 193 0
-193 202 0
-51 -193 194 0
-194 203 0
-52 -194 195 0
-195 204 0
37 -195 196 0
-196 205 0
38 -196 197 0
-197 206 0
41 -197 198 0
-198 207 0
42 -198 0
-44 199 0
-199 208 0
-47 -199 200 0
-200 209 0
-48 -200 201 0
-201 210 0
-51 -201 202 0
-202 211 0
-52 -202 203 0
-203 212 0
37 -203 204 0
-204 213 0
38 -204 205 0
-205 214 0
41 -205 206 0
-206 215 0
42 -206 207 0
-207 216 0
45 -207 0
-47 208 0
-208 217 0
-48 -208 209 0
-209 218 0
-51 -209 210 0
-210 219 0
-52 -210 211 0
-211 220 0
37 -211 212 0
-212 221 0
38 -212 213 0
-213 222 0
41 -213 214 0
-214 223 0
42 -214 215 0
-215 224 0
45 -215 216 0
-216 225 0
46 -216 0
-48 217 0
-217 226 0
-51 -217 218 0
-218 227 0
-52 -218 219 0
-219 228 0
37 -219 220 0
-220 229 0
38 -220 221 0
-221 230 0
41 -221 222 0
-222 231 0
42 -222 223 0
-223 232 0
45 -223 224 0
-224 233 0
46 -224 225 0
-225 234 0
49 -225 0
-51 226 0
-226 235 0
-52 -226 227 0
-227 236 0
37 -227 228 0
-228 237 0
38 -228 229 0
-229 238 0
41 -229 230 0
-230 239 0
42 -230 231 0
-231 240 0
45 -231 232 0
-232 241 0
46 -232 233 0
-233 242 0
49 -233 234 0
-234 243 0
50 -234 0
-52 235 0
-235 244 0
37 -235 236 0
-236 245 0
38 -236 237 0
-237 246 0
41 -237 238 0
-238 247 0
42 -238 239 0
-239 248 0
45 -239 240 0
-240 249 0
46 -240 241 0
-241 250 0
49 -241 242 0
-242 251 0
50 -242 243 0
-243 252 0
53 -243 0
37 244 0
38 -244 245 0
41 -245 246 0
42 -246 247 0
45 -247 248 0
46 -248 249 0
49 -249 250 0
50 -250 251 0
53 -251 252 0
54 -252 0
-253 1 0
-253 4 0
253 -1 -4 0
-254 6 0
-254 9 0
254 -6 -9 0
-255 1 0
-255 9 0
255 -1 -9 0
-256 6 0
-256 4 0
256 -6 -4 0
-257 2 0
-257 5 0
257 -2 -5 0
-258 7 0
-258 10 0
258 -7 -10 0
-259 2 0
-259 10 0
259 -2 -10 0
-260 7 0
-260 5 0
260 -7 -5 0
-261 3 0
-261 1 0
261 -3 -1 0
-262 8 0
-262 6 0
262 -8 -6 0
-263 3 0
-263 6 0
263 -3 -6 0
-264 8 0
-264 1 0
264 -8 -1 0
-265 4 0
-265 2 0
265 -4 -2 0
-266 9 0
-266 7 0
266 -9 -7 0
-267 4 0
-267 7 0
267 -4 -7 0
-268 9 0
-268 2 0
268 -9 -2 0
-269 5 0
-269 3 0
269 -5 -3 0
-270 10 0
-270 8 0
270 -10 -8 0
-271 5 0
-271 8 0
271 -5 -8 0
-272 10 0
-272 3 0
272 -10 -3 0
253 273 0
-273 274 0
254 -273 275 0
-275 276 0
257 -275 277 0
-277 278 0
258 -277 279 0
-279 280 0
261 -279 281 0
-281 282 0
262 -281 283 0
-283 284 0
265 -283 285 0
-285 286 0
266 -285 287 0
-287 288 0
269 -287 289 0
-289 290 0
270 -289 291 0
-291 292 0
-255 -291 293 0
-293 294 0
-256 -293 0
254 274 0
-274 295 0
257 -274 276 0
-276 296 0
258 -276 278 0
-278 297 0
261 -278 280 0
-280 298 0
262 -280 282 0
-282 299 0
265 -282 284 0
-284 300 0
266 -284 286 0
-286 301 0
269 -286 288 0
-288 302 0
270 -288 290 0
-290 303 0
-255 -290 292 0
-292 304 0
-256 -292 294 0
-294 305 0
-259 -294 0
257 295 0
-295 306 0
258 -295 296 0
-296 307 0
261 -296 297 0
-297 308 0
262 -297 298 0
-298 309 0
265 -298 299 0
-299 310 0
266 -299 300 0
-300 311 0
269 -300 301 0
-301 312 0
270 -301 302 0
-302 313 0
-255 -302 303 0
-303 314 0
-256 -303 304 0
-304 315 0
-259 -304 305 0
-305 316 0
-260 -305 0
258 306 0
-306 317 0
261 -306 307 0
-307 318 0
262 -307 308 0
-308 319 0
265 -308 309 0
-309 320 0
266 -309 310 0
-310 321 0
269 -310 311 0
-311 322 0
270 -311 312 0
-312 323 0
-255 -312 313 0
-313 324 0
-256 -313 314 0
-314 325 0
-259 -314 315 0
-315 326 0
-260 -315 316 0
-316 327 0
-263 -316 0
261 317 0
-317 328 0
262 -317 318 0
-318 329 0
265 -318 319 0
-319 330 0
266 -319 320 0
-320 331 0
269 -320 321 0
-321 332 0
270 -321 322 0
-322 333 0
-255 -322 323 0
-323 334 0
-256 -323 324 0
-324 335 0
-259 -324 325 0
-325 336 0
-260 -325 326 0
-326 337 0
-263 -326 327 0
-327 338 0
-264 -327 0
262 328 0
-328 339 0
265 -328 329 0
-329 340 0
266 -329 330 0
-330 341 0
269 -330 331 0
-331 342 0
270 -331 332 0
-332 343 0
-255 -332 333 0
-333 344 0
-256 -333 334 0
-334 345 0
-259 -334 335 0
-335 346 0
-260 -335 336 0
-336 347 0
-263 -336 337 0
-337 348 0
-264 -337 338 0
-338 349 0
-267 -338 0
265 339 0
-339 350 0
266 -339 340 0
-340 351 0
269 -340 341 0
-341 352 0
270 -341 342 0
-342 353 0
-255 -342 343 0
-343 354 0
-256 -343 344 0
-344 355 0
-259 -344 345 0
-345 356 0
-260 -345 346 0
-346 357 0
-263 -346 347 0
-347 358 0
-264 -347 348 0
-348 359 0
-267 -348 349 0
-349 360 0
-268 -349 0
266 350 0
-350 361 0
269 -350 351 0
-351 362 0
270 -351 352 0
-352 363 0
-255 -352 353 0
-353 364 0
-256 -353 354 0
-354 365 0
-259 -354 355 0
-355 366 0
-260 -355 356 0
-356 367 0
-263 -356 357 0
-357 368 0
-264 -357 358 0
-358 369 0
-267 -358 359 0
-359 370 0
-268 -359 360 0
-360 371 0
-271 -360 0
269 361 0
270 -361 362 0
-255 -362 363 0
-256 -363 364 0
-259 -364 365 0
-260 -365 366 0
-263 -366 367 0
-264 -367 368 0
-267 -368 369 0
-268 -369 370 0
-271 -370 371 0
-272 -371 0
-253 372 0
-372 373 0
-254 -372 374 0
-374 375 0
-257 -374 376 0
-376 377 0
-258 -376 378 0
-378 379 0
-261 -378 380 0
-380 381 0
-262 -380 382 0
-382 383 0
-265 -382 384 0
-384 385 0
-266 -384 386 0
-386 387 0
-269 -386 388 0
-388 389 0
-270 -388 0
-254 373 0
-373 390 0
-257 -373 375 0
-375 391 0
-258 -375 377 0
-377 392 0
-261 -377 379 0
-379 393 0
-262 -379 381 0
-381 394 0
-265 -381 383 0
-383 395 0
-266 -383 385 0
-385 396 0
-269 -385 387 0
-387 397 0
-270 -387 389 0
-389 398 0
255 -389 0
-257 390 0
-390 399 0
-258 -390 391 0
-391 400 0
-261 -391 392 0
-392 401 0
-262 -392 393 0
-393 402 0
-265 -393 394 0
-394 403 0
-266 -394 395 0
-395 404 0
-269 -395 396 0
-396 405 0
-270 -396 397 0
-397 406 0
255 -397 398 0
-398 407 0
256 -398 0
-258 399 0
-399 408 0
-261 -399 400 0
-400 409 0
-262 -400 401 0
-401 410 0
-265 -401 402 0
-402 411 0
-266 -402 403 0
-403 412 0
-269 -403 404 0
-404 413 0
-270 -404 405 0
-405 414 0
255 -405 406 0
-406 415 0
256 -406 407 0
-407 416 0
259 -407 0
-261 408 0
-408 417 0
-262 -408 409 0
-409 418 0
-265 -409 410 0
-410 419 0
-266 -410 411 0
-411 420 0
-269 -411 412 0
-412 421 0
-270 -412 413 0
-413 422 0
255 -413 414 0
-414 423 0
256 -414 415 0
-415 424 0
259 -415 416 0
-416 425 0
260 -416 0
-262 417 0
-417 426 0
-265 -417 418 0
-418 427 0
-266 -418 419 0
-419 428 0
-269 -419 420 0
-420 429 0
-270 -420 421 0
-421 430 0
255 -421 422 0
-422 431 0
256 -422 423 0
-423 432 0
259 -423 424 0
-424 433 0
260 -424 425 0
-425 434 0
263 -425 0
-265 426 0
-426 435 0
-266 -426 427 0
-427 436 0
-269 -427 428 0
-428 437 0
-270 -428 429 0
-429 438 0
255 -429 430 0
-430 439 0
256 -430 431 0
-431 440 0
259 -431 432 0
-432 441 0
260 -432 433 0
-433 442 0
263 -433 434 0
-434 443 0
264 -434 0
-266 435 0
-435 444 0
-269 -435 436 0
-436 445 0
-270 -436 437 0
-437 446 0
255 -437 438 0
-438 447 0
256 -438 439 0
-439 448 0
259 -439 440 0
-440 449 0
260 -440 441 0
-441 450 0
263 -441 442 0
-442 451 0
264 -442 443 0
-443 452 0
267 -443 0
-269 444 0
-444 453 0
-270 -444 445 0
-445 454 0
255 -445 446 0
-446 455 0
256 -446 447 0
-447 456 0
259 -447 448 0
-448 457 0
260 -448 449 0
-449 458 0
263 -449 450 0
-450 459 0
264 -450 451 0
-451 460 0
267 -451 452 0
-452 461 0
268 -452 0
-270 453 0
-453 462 0
255 -453 454 0
-454 463 0
256 -454 455 0
-455 464 0
259 -455 456 0
-456 465 0
260 -456 457 0
-457 466 0
263 -457 458 0
-458 467 0
264 -458 459 0
-459 468 0
267 -459 460 0
-460 469 0
268 -460 461 0
-461 470 0
271 -461 0
255 462 0
256 -462 463 0
259 -463 464 0
260 -464 465 0
263 -465 466 0
264 -466 467 0
267 -467 468 0
268 -468 469 0
271 -469 470 0
272 -470 0
-471 1 0
-471 3 0
471 -1 -3 0
-472 6 0
-472 8 0
472 -6 -8 0
-473 1 0
-473 8 0
473 -1 -8 0
-474 6 0
-474 3 0
474 -6 -3 0
-475 2 0
-475 4 0
475 -2 -4 0
-476 7 0
-476 9 0
476 -7 -9 0
-477 2 0
-477 9 0
477 -2 -9 0
-478 7 0
-478 4 0
478 -7 -4 0
-479 3 0
-479 5 0
479 -3 -5 0
-480 8 0
-480 10 0
480 -8 -10 0
-481 3 0
-481 10 0
481 -3 -10 0
-482 8 0
-482 5 0
482 -8 -5 0
-483 4 0
-483 1 0
483 -4 -1 0
-484 9 0
-484 6 0
484 -9 -6 0
-485 4 0
-485 6 0
485 -4 -6 0
-486 9 0
-486 1 0
486 -9 -1 0
-487 5 0
-487 2 0
487 -5 -2 0
-488 10 0
-488 7 0
488 -10 -7 0
-489 5 0
-489 7 0
489 -5 -7 0
-490 10 0
-490 2 0
490 -10 -2 0
471 491 0
-491 492 0
472 -491 493 0
-493 494 0
475 -493 495 0
-495 496 0
476 -495 497 0
-497 498 0
479 -497 499 0
-499 500 0
480 -499 501 0
-501 502 0
483 -501 503 0
-503 504 0
484 -503 505 0
-505 506 0
487 -505 507 0
-507 508 0
488 -507 509 0
-509 510 0
-473 -509 511 0
-511 512 0
-474 -511 0
472 492 0
-492 513 0
475 -492 494 0
-494 514 0
476 -494 496 0
-496 515 0
479 -496 498 0
-498 516 0
480 -498 500 0
-500 517 0
483 -500 502 0
-502 518 0
484 -502 504 0
-504 519 0
487 -504 506 0
-506 520 0
488 -506 508 0
-508 521 0
-473 -508 510 0
-510 522 0
-474 -510 512 0
-512 523 0
-477 -512 0
475 513 0
-513 524 0
476 -513 514 0
-514 525 0
479 -514 515 0
-515 526 0
480 -515 516 0
-516 527 0
483 -516 517 0
-517 528 0
484 -517 518 0
-518 529 0
487 -518 519 0
-519 530 0
488 -519 520 0
-520 531 0
-473 -520 521 0
-521 532 0
-474 -521 522 0
-522 533 0
-477 -522 523 0
-523 534 0
-478 -523 0
476 524 0
-524 535 0
479 -524 525 0
-525 536 0
480 -525 526 0
-526 537 0
483 -526 527 0
-527 538 0
484 -527 528 0
-528 539 0
487 -528 529 0
-529 540 0
488 -529 530 0
-530 541 0
-473 -530 531 0
-531 542 0
-474 -531 532 0
-532 543 0
-477 -532 533 0
-533 544 0
-478 -533 534 0
-534 545 0
-481 -534 0
479 535 0
-535 546 0
480 -535 536 0
-536 547 0
483 -536 537 0
-537 548 0
484 -537 538 0
-538 549 0
487 -538 539 0
-539 550 0
488 -539 540 0
-540 551 0
-473 -540 541 0
-541 552 0
-474 -541 542 0
-542 553 0
-477 -542 543 0
-543 554 0
-478 -543 544 0
-544 555 0
-481 -544 545 0
-545 556 0
-482 -545 0
480 546 0
-546 557 0
483 -546 547 0
-547 558 0
484 -547 548 0
-548 559 0
487 -548 549 0
-549 560 0
488 -549 550 0
-550 561 0
-473 -550 551 0
-551 562 0
-474 -551 552 0
-552 563 0
-477 -552 553 0
-553 564 0
-478 -553 554 0
-554 565 0
-481 -554 555 0
-555 566 0
-482 -555 556 0
-556 567 0
-485 -556 0
483 557 0
-557 568 0
484 -557 558 0
-558 569 0
487 -558 559 0
-559 570 0
488 -559 560 0
-560 571 0
-473 -560 561 0
-561 572 0
-474 -561 562 0
-562 573 0
-477 -562 563 0
-563 574 0
-478 -563 564 0
-564 575 0
-481 -564 565 0
-565 576 0
-482 -565 566 0
-566 577 0
-485 -566 567 0
-567 578 0
-486 -567 0
484 568 0
-568 579 0
487 -568 569 0
-569 580 0
488 -569 570 0
-570 581 0
-473 -570 571 0
-571 582 0
-474 -571 572 0
-572 583 0
-477 -572 573 0
-573 584 0
-478 -573 574 0
-574 585 0
-481 -574 575 0
-575 586 0
-482 -575 576 0
-576 587 0
-485 -576 577 0
-577 588 0
-486 -577 578 0
-578 589 0
-489 -578 0
487 579 0
488 -579 580 0
-473 -580 581 0
-474 -581 582 0
-477 -582 583 0
-478 -583 584 0
-481 -584 585 0
-482 -585 586 0
-485 -586 587 0
-486 -587 588 0
-489 -588 589 0
-490 -589 0
-471 590 0
-590 591 0
-472 -590 592 0
-592 593 0
-475 -592 594 0
-594 595 0
-476 -594 596 0
-596 597 0
-479 -596 598 0
-598 599 0
-480 -598 600 0
-600 601 0
-483 -600 602 0
-602 603 0
-484 -602 604 0
-604 605 0
-487 -604 606 0
-606 607 0
-488 -606 0
-472 591 0
-591 608 0
-475 -591 593 0
-593 609 0
-476 -593 595 0
-595 610 0
-479 -595 597 0
-597 611 0
-480 -597 599 0
-599 612 0
-483 -599 601 0
-601 613 0
-484 -601 603 0
-603 614 0
-487 -603 605 0
-605 615 0
-488 -605 607 0
-607 616 0
473 -607 0
-475 608 0
-608 617 0
-476 -608 609 0
-609 618 0
-479 -609 610 0
-610 619 0
-480 -610 611 0
-611 620 0
-483 -611 612 0
-612 621 0
-484 -612 613 0
-613 622 0
-487 -613 614 0
-614 623 0
-488 -614 615 0
-615 624 0
473 -615 616 0
-616 625 0
474 -616 0
-476 617 0
-617 626 0
-479 -617 618 0
-618 627 0
-480 -618 619 0
-619 628 0
-483 -619 620 0
-620 629 0
-484 -620 621 0
-621 630 0
-487 -621 622 0
-622 631 0
-488 -622 623 0
-623 632 0
473 -623 624 0
-624 633 0
474 -624 625 0
-625 634 0
477 -625 0
-479 626 0
-626 635 0
-480 -626 627 0
-627 636 0
-483 -627 628 0
-628 637 0
-484 -628 629 0
-629 638 0
-487 -629 630 0
-630 639 0
-488 -630 631 0
-631 640 0
473 -631 632 0
-632 641 0
474 -632 633 0
-633 642 0
477 -633 634 0
-634 643 0
478 -634 0
-480 635 0
-635 644 0
-483 -635 636 0
-636 645 0
-484 -636 637 0
-637 646 0
-487 -637 638 0
-638 647 0
-488 -638 639 0
-639 648 0
473 -639 640 0
-640 649 0
474 -640 641 0
-641 650 0
477 -641 642 0
-642 651 0
478 -642 643 0
-643 652 0
481 -643 0
-483 644 0
-644 653 0
-484 -644 645 0
-645 654 0
-487 -645 646 0
-646 655 0
-488 -646 647 0
-647 656 0
473 -647 648 0
-648 657 0
474 -648 649 0
-649 658 0
477 -649 650 0
-650 659 0
478 -650 651 0
-651 660 0
481 -651 652 0
-652 661 0
482 -652 0
-484 653 0
-653 662 0
-487 -653 654 0
-654 663 0
-488 -654 655 0
-655 664 0
473 -655 656 0
-656 665 0
474 -656 657 0
-657 666 0
477 -657 658 0
-658 667 0
478 -658 659 0
-659 668 0
481 -659 660 0
-660 669 0
482 -660 661 0
-661 670 0
485 -661 0
-487 662 0
-662 671 0
-488 -662 663 0
-663 672 0
473 -663 664 0
-664 673 0
474 -664 665 0
-665 674 0
477 -665 666 0
-666 675 0
478 -666 667 0
-667 676 0
481 -667 668 0
-668 677 0
482 -668 669 0
-669 678 0
485 -669 670 0
-670 679 0
486 -670 0
-488 671 0
-671 680 0
473 -671 672 0
-672 681 0
474 -672 673 0
-673 682 0
477 -673 674 0
-674 683 0
478 -674 675 0
-675 684 0
481 -675 676 0
-676 685 0
482 -676 677 0
-677 686 0
485 -677 678 0
-678 687 0
486 -678 679 0
-679 688 0
489 -679 0
473 680 0
474 -680 681 0
477 -681 682 0
478 -682 683 0
481 -683 684 0
482 -684 685 0
485 -685 686 0
486 -686 687 0
489 -687 688 0
490 -688 0
-689 1 0
-689 2 0
689 -1 -2 0
-690 6 0
-690 7 0
690 -6 -7 0
-691 1 0
-691 7 0
691 -1 -7 0
-692 6 0
-692 2 0
692 -6 -2 0
-693 2 0
-693 3 0
693 -2 -3 0
-694 7 0
-694 8 0
694 -7 -8 0
-695 2 0
-695 8 0
695 -2 -8 0
-696 7 0
-696 3 0
696 -7 -3 0
-697 3 0
-697 4 0
697 -3 -4 0
-698 8 0
-698 9 0
698 -8 -9 0
-699 3 0
-699 9 0
699 -3 -9 0
-700 8 0
-700 4 0
700 -8 -4 0
-701 4 0
-701 5 0
701 -4 -5 0
-702 9 0
-702 10 0
702 -9 -10 0
-703 4 0
-703 10 0
703 -4 -10 0
-704 9 0
-704 5 0
704 -9 -5 0
-705 5 0
-705 1 0
705 -5 -1 0
-706 10 0
-706 6 0
706 -10 -6 0
-707 5 0
-707 6 0
707 -5 -6 0
-708 10 0
-708 1 0
708 -10 -1 0
689 709 0
-709 710 0
690 -709 711 0
-711 712 0
693 -711 713 0
-713 714 0
694 -713 715 0
-715 716 0
697 -715 717 0
-717 718 0
698 -717 719 0
-719 720 0
701 -719 721 0
-721 722 0
702 -721 723 0
-723 724 0
705 -723 725 0
-725 726 0
706 -725 727 0
-727 728 0
-691 -727 729 0
-729 730 0
-692 -729 0
690 710 0
-710 731 0
693 -710 712 0
-712 732 0
694 -712 714 0
-714 733 0
697 -714 716 0
-716 734 0
698 -716 718 0
-718 735 0
701 -718 720 0
-720 736 0
702 -720 722 0
-722 737 0
705 -722 724 0
-724 738 0
706 -724 726 0
-726 739 0
-691 -726 728 0
-728 740 0
-692 -728 730 0
-730 741 0
-695 -730 0
693 731 0
-731 742 0
694 -731 732 0
-732 743 0
697 -732 733 0
-733 744 0
698 -733 734 0
-734 745 0
701 -734 735 0
-735 746 0
702 -735 736 0
-736 747 0
705 -736 737 0
-737 748 0
706 -737 738 0
-738 749 0
-691 -738 739 0
-739 750 0
-692 -739 740 0
-740 751 0
-695 -740 741 0
-741 752 0
-696 -741 0
694 742 0
-742 753 0
697 -742 743 0
-743 754 0
698 -743 744 0
-744 755 0
701 -744 745 0
-745 756 0
702 -745 746 0
-746 757 0
705 -746 747 0
-747 758 0
706 -747 748 0
-748 759 0
-691 -748 749 0
-749 760 0
-692 -749 750 0
-750 761 0
-695 -750 751 0
-751 762 0
-696 -751 752 0
-752 763 0
-699 -752 0
697 753 0
-753 764 0
698 -753 754 0
-754 765 0
701 -754 755 0
-755 766 0
702 -755 756 0
-756 767 0
705 -756 757 0
-757 768 0
706 -757 758 0
-758 769 0
-691 -758 759 0
-759 770 0
-692 -759 760 0
-760 771 0
-695 -760 761 0
-761 772 0
-696 -761 762 0
-762 773 0
-699 -762 763 0
-763 774 0
-700 -763 0
698 764 0
-764 775 0
701 -764 765 0
-765 776 0
702 -765 766 0
-766 777 0
705 -766 767 0
-767 778 0
706 -767 768 0
-768 779 0
-691 -768 769 0
-769 780 0
-692 -769 770 0
-770 781 0
-695 -770 771 0
-771 782 0
-696 -771 772 0
-772 783 0
-699 -772 773 0
-773 784 0
-700 -773 774 0
-774 785 0
-703 -774 0
701 775 0
-775 786 0
702 -775 776 0
-776 787 0
705 -776 777 0
-777 788 0
706 -777 778 0
-778 789 0
-691 -778 779 0
-779 790 0
-692 -779 780 0
-780 791 0
-695 -780 781 0
-781 792 0
-696 -781 782 0
-782 793 0
-699 -782 783 0
-783 794 0
-700 -783 784 0
-784 795 0
-703 -784 785 0
-785 796 0
-704 -785 0
702 786 0
-786 797 0
705 -786 787 0
-787 798 0
706 -787 788 0
-788 799 0
-691 -788 789 0
-789 800 0
-692 -789 790 0
-790 801 0
-695 -790 791 0
-791 802 0
-696 -791 792 0
-792 803 0
-699 -792 793 0
-793 804 0
-700 -793 794 0
-794 805 0
-703 -794 795 0
-795 806 0
-704 -795 796 0
-796 807 0
-707 -796 0
705 797 0
706 -797 798 0
-691 -798 799 0
-692 -799 800 0
-695 -800 801 0
-696 -801 802 0
-699 -802 803 0
-700 -803 804 0
-703 -804 805 0
-704 -805 806 0
-707 -806 807 0
-708 -807 0
-689 808 0
-808 809 0
-690 -808 810 0
-810 811 0
-693 -810 812 0
-812 813 0
-694 -812 814 0
-814 815 0
-697 -814 816 0
-816 817 0
-698 -816 818 0
-818 819 0
-701 -818 820 0
-820 821 0
-702 -820 822 0
-822 823 0
-705 -822 824 0
-824 825 0
-706 -824 0
-690 809 0
-809 826 0
-693 -809 811 0
-811 827 0
-694 -811 813 0
-813 828 0
-697 -813 815 0
-815 829 0
-698 -815 817 0
-817 830 0
-701 -817 819 0
-819 831 0
-702 -819 821 0
-821 832 0
-705 -821 823 0
-823 833 0
-706 -823 825 0
-825 834 0
691 -825 0
-693 826 0
-826 835 0
-694 -826 827 0
-827 836 0
-697 -827 828 0
-828 837 0
-698 -828 829 0
-829 838 0
-701 -829 830 0
-830 839 0
-702 -830 831 0
-831 840 0
-705 -831 832 0
-832 841 0
-706 -832 833 0
-833 842 0
691 -833 834 0
-834 843 0
692 -834 0
-694 835 0
-835 844 0
-697 -835 836 0
-836 845 0
-698 -836 837 0
-837 846 0
-701 -837 838 0
-838 847 0
-702 -838 839 0
-839 848 0
-705 -839 840 0
-840 849 0
-706 -840 841 0
-841 850 0
691 -841 842 0
-842 851 0
692 -842 843 0
-843 852 0
695 -843 0
-697 844 0
-844 853 0
-698 -844 845 0
-845 854 0
-701 -845 846 0
-846 855 0
-702 -846 847 0
-847 856 0
-705 -847 848 0
-848 857 0
-706 -848 849 0
-849 858 0
691 -849 850 0
-850 859 0
692 -850 851 0
-851 860 0
695 -851 852 0
-852 861 0
696 -852 0
-698 853 0
-853 862 0
-701 -853 854 0
-854 863 0
-702 -854 855 0
-855 864 0
-705 -855 856 0
-856 865 0
-706 -856 857 0
-857 866 0
691 -857 858 0
-858 867 0
692 -858 859 0
-859 868 0
695 -859 860 0
-860 869 0
696 -860 861 0
-861 870 0
699 -861 0
-701 862 0
-862 871 0
-702 -862 863 0
-863 872 0
-705 -863 864 0
-864 873 0
-706 -864 865 0
-865 874 0
691 -865 866 0
-866 875 0
692 -866 867 0
-867 876 0
695 -867 868 0
-868 877 0
696 -868 869 0
-869 878 0
699 -869 870 0
-870 879 0
700 -870 0
-702 871 0
-871 880 0
-705 -871 872 0
-872 881 0
-706 -872 873 0
-873 882 0
691 -873 874 0
-874 883 0
692 -874 875 0
-875 884 0
695 -875 876 0
-876 885 0
696 -876 877 0
-877 886 0
699 -877 878 0
-878 887 0
700 -878 879 0
-879 888 0
703 -879 0
-705 880 0
-880 889 0
-706 -880 881 0
-881 890 0
691 -881 882 0
-882 891 0
692 -882 883 0
-883 892 0
695 -883 884 0
-884 893 0
696 -884 885 0
-885 894 0
699 -885 886 0
-886 895 0
700 -886 887 0
-887 896 0
703 -887 888 0
-888 897 0
704 -888 0
-706 889 0
-889 898 0
691 -889 890 0
-890 899 0
692 -890 891 0
-891 900 0
695 -891 892 0
-892 901 0
696 -892 893 0
-893 902 0
699 -893 894 0
-894 903 0
700 -894 895 0
-895 904 0
703 -895 896 0
-896 905 0
704 -896 897 0
-897 906 0
707 -897 0
691 898 0
692 -898 899 0
695 -899 900 0
696 -900 901 0
699 -901 902 0
700 -902 903 0
703 -903 904 0
704 -904 905 0
707 -905 906 0
708 -906 0
