c instance SDS(9,8,-1,[3,3])
c cardinality encoding totalizer
c p_g/n_g are exclusive; exact counts fix support and nonnegative augmentation sign
c negative coefficient at identity is fixed by translation symmetry
c AND auxiliaries are encoded by three clauses each (full equivalence)
c each nonidentity equation is sum(same)+sum(not cross)=lambda+2v
p cnf 3430 14242
-1 -10 0
-2 -11 0
-3 -12 0
-4 -13 0
-5 -14 0
-6 -15 0
-7 -16 0
-8 -17 0
-9 -18 0
-33 19 0
-34 20 0
-35 21 0
-36 22 0
-28 19 0
-29 20 0
-30 21 0
-31 22 0
-32 23 0
-28 -33 20 0
-28 -34 21 0
-28 -35 22 0
-28 -36 23 0
-29 -33 21 0
-29 -34 22 0
-29 -35 23 0
-29 -36 24 0
-30 -33 22 0
-30 -34 23 0
-30 -35 24 0
-30 -36 25 0
-31 -33 23 0
-31 -34 24 0
-31 -35 25 0
-31 -36 26 0
-32 -33 24 0
-32 -34 25 0
-32 -35 26 0
-32 -36 27 0
-39 33 0
-40 34 0
-37 33 0
-38 34 0
-37 -39 34 0
-37 -40 35 0
-38 -39 35 0
-38 -40 36 0
9 39 0
8 39 0
8 9 40 0
7 37 0
6 37 0
6 7 38 0
-44 28 0
-45 29 0
-41 28 0
-42 29 0
-43 30 0
-41 -44 29 0
-41 -45 30 0
-42 -44 30 0
-42 -45 31 0
-43 -44 31 0
-43 -45 32 0
5 44 0
4 44 0
4 5 45 0
3 41 0
-46 41 0
-47 42 0
-46 3 42 0
-47 3 43 0
2 46 0
1 46 0
1 2 47 0
-24 0
-62 48 0
-63 49 0
-64 50 0
-65 51 0
-57 48 0
-58 49 0
-59 50 0
-60 51 0
-61 52 0
-57 -62 49 0
-57 -63 50 0
-57 -64 51 0
-57 -65 52 0
-58 -62 50 0
-58 -63 51 0
-58 -64 52 0
-58 -65 53 0
-59 -62 51 0
-59 -63 52 0
-59 -64 53 0
-59 -65 54 0
-60 -62 52 0
-60 -63 53 0
-60 -64 54 0
-60 -65 55 0
-61 -62 53 0
-61 -63 54 0
-61 -64 55 0
-61 -65 56 0
-68 62 0
-69 63 0
-66 62 0
-67 63 0
-66 -68 63 0
-66 -69 64 0
-67 -68 64 0
-67 -69 65 0
-9 68 0
-8 68 0
-8 -9 69 0
-7 66 0
-6 66 0
-6 -7 67 0
-73 57 0
-74 58 0
-70 57 0
-71 58 0
-72 59 0
-70 -73 58 0
-70 -74 59 0
-71 -73 59 0
-71 -74 60 0
-72 -73 60 0
-72 -74 61 0
-5 73 0
-4 73 0
-4 -5 74 0
-3 70 0
-75 70 0
-76 71 0
-75 -3 71 0
-76 -3 72 0
-2 75 0
-1 75 0
-1 -2 76 0
-52 0
-91 77 0
-92 78 0
-93 79 0
-94 80 0
-86 77 0
-87 78 0
-88 79 0
-89 80 0
-90 81 0
-86 -91 78 0
-86 -92 79 0
-86 -93 80 0
-86 -94 81 0
-87 -91 79 0
-87 -92 80 0
-87 -93 81 0
-87 -94 82 0
-88 -91 80 0
-88 -92 81 0
-88 -93 82 0
-88 -94 83 0
-89 -91 81 0
-89 -92 82 0
-89 -93 83 0
-89 -94 84 0
-90 -91 82 0
-90 -92 83 0
-90 -93 84 0
-90 -94 85 0
-97 91 0
-98 92 0
-95 91 0
-96 92 0
-95 -97 92 0
-95 -98 93 0
-96 -97 93 0
-96 -98 94 0
18 97 0
17 97 0
17 18 98 0
16 95 0
15 95 0
15 16 96 0
-102 86 0
-103 87 0
-99 86 0
-100 87 0
-101 88 0
-99 -102 87 0
-99 -103 88 0
-100 -102 88 0
-100 -103 89 0
-101 -102 89 0
-101 -103 90 0
14 102 0
13 102 0
13 14 103 0
12 99 0
-104 99 0
-105 100 0
-104 12 100 0
-105 12 101 0
11 104 0
10 104 0
10 11 105 0
-82 0
-120 106 0
-121 107 0
-122 108 0
-123 109 0
-115 106 0
-116 107 0
-117 108 0
-118 109 0
-119 110 0
-115 -120 107 0
-115 -121 108 0
-115 -122 109 0
-115 -123 110 0
-116 -120 108 0
-116 -121 109 0
-116 -122 110 0
-116 -123 111 0
-117 -120 109 0
-117 -121 110 0
-117 -122 111 0
-117 -123 112 0
-118 -120 110 0
-118 -121 111 0
-118 -122 112 0
-118 -123 113 0
-119 -120 111 0
-119 -121 112 0
-119 -122 113 0
-119 -123 114 0
-126 120 0
-127 121 0
-124 120 0
-125 121 0
-124 -126 121 0
-124 -127 122 0
-125 -126 122 0
-125 -127 123 0
-18 126 0
-17 126 0
-17 -18 127 0
-16 124 0
-15 124 0
-15 -16 125 0
-131 115 0
-132 116 0
-128 115 0
-129 116 0
-130 117 0
-128 -131 116 0
-128 -132 117 0
-129 -131 117 0
-129 -132 118 0
-130 -131 118 0
-130 -132 119 0
-14 131 0
-13 131 0
-13 -14 132 0
-12 128 0
-133 128 0
-134 129 0
-133 -12 129 0
-134 -12 130 0
-11 133 0
-10 133 0
-10 -11 134 0
-110 0
10 0
-135 1 0
-135 3 0
135 -1 -3 0
-136 10 0
-136 12 0
136 -10 -12 0
-137 1 0
-137 12 0
137 -1 -12 0
-138 10 0
-138 3 0
138 -10 -3 0
-139 2 0
-139 1 0
139 -2 -1 0
-140 11 0
-140 10 0
140 -11 -10 0
-141 2 0
-141 10 0
141 -2 -10 0
-142 11 0
-142 1 0
142 -11 -1 0
-143 3 0
-143 2 0
143 -3 -2 0
-144 12 0
-144 11 0
144 -12 -11 0
-145 3 0
-145 11 0
145 -3 -11 0
-146 12 0
-146 2 0
146 -12 -2 0
-147 4 0
-147 6 0
147 -4 -6 0
-148 13 0
-148 15 0
148 -13 -15 0
-149 4 0
-149 15 0
149 -4 -15 0
-150 13 0
-150 6 0
150 -13 -6 0
-151 5 0
-151 4 0
151 -5 -4 0
-152 14 0
-152 13 0
152 -14 -13 0
-153 5 0
-153 13 0
153 -5 -13 0
-154 14 0
-154 4 0
154 -14 -4 0
-155 6 0
-155 5 0
155 -6 -5 0
-156 15 0
-156 14 0
156 -15 -14 0
-157 6 0
-157 14 0
157 -6 -14 0
-158 15 0
-158 5 0
158 -15 -5 0
-159 7 0
-159 9 0
159 -7 -9 0
-160 16 0
-160 18 0
160 -16 -18 0
-161 7 0
-161 18 0
161 -7 -18 0
-162 16 0
-162 9 0
162 -16 -9 0
-163 8 0
-163 7 0
163 -8 -7 0
-164 17 0
-164 16 0
164 -17 -16 0
-165 8 0
-165 16 0
165 -8 -16 0
-166 17 0
-166 7 0
166 -17 -7 0
-167 9 0
-167 8 0
167 -9 -8 0
-168 18 0
-168 17 0
168 -18 -17 0
-169 9 0
-169 17 0
169 -9 -17 0
-170 18 0
-170 8 0
170 -18 -8 0
-225 171 0
-226 172 0
-227 173 0
-228 174 0
-229 175 0
-230 176 0
-231 177 0
-232 178 0
-233 179 0
-234 180 0
-235 181 0
-236 182 0
-237 183 0
-238 184 0
-239 185 0
-240 186 0
-241 187 0
-242 188 0
-207 171 0
-208 172 0
-209 173 0
-210 174 0
-211 175 0
-212 176 0
-213 177 0
-214 178 0
-215 179 0
-216 180 0
-217 181 0
-218 182 0
-219 183 0
-220 184 0
-221 185 0
-222 186 0
-223 187 0
-224 188 0
-207 -225 172 0
-207 -226 173 0
-207 -227 174 0
-207 -228 175 0
-207 -229 176 0
-207 -230 177 0
-207 -231 178 0
-207 -232 179 0
-207 -233 180 0
-207 -234 181 0
-207 -235 182 0
-207 -236 183 0
-207 -237 184 0
-207 -238 185 0
-207 -239 186 0
-207 -240 187 0
-207 -241 188 0
-207 -242 189 0
-208 -225 173 0
-208 -226 174 0
-208 -227 175 0
-208 -228 176 0
-208 -229 177 0
-208 -230 178 0
-208 -231 179 0
-208 -232 180 0
-208 -233 181 0
-208 -234 182 0
-208 -235 183 0
-208 -236 184 0
-208 -237 185 0
-208 -238 186 0
-208 -239 187 0
-208 -240 188 0
-208 -241 189 0
-208 -242 190 0
-209 -225 174 0
-209 -226 175 0
-209 -227 176 0
-209 -228 177 0
-209 -229 178 0
-209 -230 179 0
-209 -231 180 0
-209 -232 181 0
-209 -233 182 0
-209 -234 183 0
-209 -235 184 0
-209 -236 185 0
-209 -237 186 0
-209 -238 187 0
-209 -239 188 0
-209 -240 189 0
-209 -241 190 0
-209 -242 191 0
-210 -225 175 0
-210 -226 176 0
-210 -227 177 0
-210 -228 178 0
-210 -229 179 0
-210 -230 180 0
-210 -231 181 0
-210 -232 182 0
-210 -233 183 0
-210 -234 184 0
-210 -235 185 0
-210 -236 186 0
-210 -237 187 0
-210 -238 188 0
-210 -239 189 0
-210 -240 190 0
-210 -241 191 0
-210 -242 192 0
-211 -225 176 0
-211 -226 177 0
-211 -227 178 0
-211 -228 179 0
-211 -229 180 0
-211 -230 181 0
-211 -231 182 0
-211 -232 183 0
-211 -233 184 0
-211 -234 185 0
-211 -235 186 0
-211 -236 187 0
-211 -237 188 0
-211 -238 189 0
-211 -239 190 0
-211 -240 191 0
-211 -241 192 0
-211 -242 193 0
-212 -225 177 0
-212 -226 178 0
-212 -227 179 0
-212 -228 180 0
-212 -229 181 0
-212 -230 182 0
-212 -231 183 0
-212 -232 184 0
-212 -233 185 0
-212 -234 186 0
-212 -235 187 0
-212 -236 188 0
-212 -237 189 0
-212 -238 190 0
-212 -239 191 0
-212 -240 192 0
-212 -241 193 0
-212 -242 194 0
-213 -225 178 0
-213 -226 179 0
-213 -227 180 0
-213 -228 181 0
-213 -229 182 0
-213 -230 183 0
-213 -231 184 0
-213 -232 185 0
-213 -233 186 0
-213 -234 187 0
-213 -235 188 0
-213 -236 189 0
-213 -237 190 0
-213 -238 191 0
-213 -239 192 0
-213 -240 193 0
-213 -241 194 0
-213 -242 195 0
-214 -225 179 0
-214 -226 180 0
-214 -227 181 0
-214 -228 182 0
-214 -229 183 0
-214 -230 184 0
-214 -231 185 0
-214 -232 186 0
-214 -233 187 0
-214 -234 188 0
-214 -235 189 0
-214 -236 190 0
-214 -237 191 0
-214 -238 192 0
-214 -239 193 0
-214 -240 194 0
-214 -241 195 0
-214 -242 196 0
-215 -225 180 0
-215 -226 181 0
-215 -227 182 0
-215 -228 183 0
-215 -229 184 0
-215 -230 185 0
-215 -231 186 0
-215 -232 187 0
-215 -233 188 0
-215 -234 189 0
-215 -235 190 0
-215 -236 191 0
-215 -237 192 0
-215 -238 193 0
-215 -239 194 0
-215 -240 195 0
-215 -241 196 0
-215 -242 197 0
-216 -225 181 0
-216 -226 182 0
-216 -227 183 0
-216 -228 184 0
-216 -229 185 0
-216 -230 186 0
-216 -231 187 0
-216 -232 188 0
-216 -233 189 0
-216 -234 190 0
-216 -235 191 0
-216 -236 192 0
-216 -237 193 0
-216 -238 194 0
-216 -239 195 0
-216 -240 196 0
-216 -241 197 0
-216 -242 198 0
-217 -225 182 0
-217 -226 183 0
-217 -227 184 0
-217 -228 185 0
-217 -229 186 0
-217 -230 187 0
-217 -231 188 0
-217 -232 189 0
-217 -233 190 0
-217 -234 191 0
-217 -235 192 0
-217 -236 193 0
-217 -237 194 0
-217 -238 195 0
-217 -239 196 0
-217 -240 197 0
-217 -241 198 0
-217 -242 199 0
-218 -225 183 0
-218 -226 184 0
-218 -227 185 0
-218 -228 186 0
-218 -229 187 0
-218 -230 188 0
-218 -231 189 0
-218 -232 190 0
-218 -233 191 0
-218 -234 192 0
-218 -235 193 0
-218 -236 194 0
-218 -237 195 0
-218 -238 196 0
-218 -239 197 0
-218 -240 198 0
-218 -241 199 0
-218 -242 200 0
-219 -225 184 0
-219 -226 185 0
-219 -227 186 0
-219 -228 187 0
-219 -229 188 0
-219 -230 189 0
-219 -231 190 0
-219 -232 191 0
-219 -233 192 0
-219 -234 193 0
-219 -235 194 0
-219 -236 195 0
-219 -237 196 0
-219 -238 197 0
-219 -239 198 0
-219 -240 199 0
-219 -241 200 0
-219 -242 201 0
-220 -225 185 0
-220 -226 186 0
-220 -227 187 0
-220 -228 188 0
-220 -229 189 0
-220 -230 190 0
-220 -231 191 0
-220 -232 192 0
-220 -233 193 0
-220 -234 194 0
-220 -235 195 0
-220 -236 196 0
-220 -237 197 0
-220 -238 198 0
-220 -239 199 0
-220 -240 200 0
-220 -241 201 0
-220 -242 202 0
-221 -225 186 0
-221 -226 187 0
-221 -227 188 0
-221 -228 189 0
-221 -229 190 0
-221 -230 191 0
-221 -231 192 0
-221 -232 193 0
-221 -233 194 0
-221 -234 195 0
-221 -235 196 0
-221 -236 197 0
-221 -237 198 0
-221 -238 199 0
-221 -239 200 0
-221 -240 201 0
-221 -241 202 0
-221 -242 203 0
-222 -225 187 0
-222 -226 188 0
-222 -227 189 0
-222 -228 190 0
-222 -229 191 0
-222 -230 192 0
-222 -231 193 0
-222 -232 194 0
-222 -233 195 0
-222 -234 196 0
-222 -235 197 0
-222 -236 198 0
-222 -237 199 0
-222 -238 200 0
-222 -239 201 0
-222 -240 202 0
-222 -241 203 0
-222 -242 204 0
-223 -225 188 0
-223 -226 189 0
-223 -227 190 0
-223 -228 191 0
-223 -229 192 0
-223 -230 193 0
-223 -231 194 0
-223 -232 195 0
-223 -233 196 0
-223 -234 197 0
-223 -235 198 0
-223 -236 199 0
-223 -237 200 0
-223 -238 201 0
-223 -239 202 0
-223 -240 203 0
-223 -241 204 0
-223 -242 205 0
-224 -225 189 0
-224 -226 190 0
-224 -227 191 0
-224 -228 192 0
-224 -229 193 0
-224 -230 194 0
-224 -231 195 0
-224 -232 196 0
-224 -233 197 0
-224 -234 198 0
-224 -235 199 0
-224 -236 200 0
-224 -237 201 0
-224 -238 202 0
-224 -239 203 0
-224 -240 204 0
-224 -241 205 0
-224 -242 206 0
-252 225 0
-253 226 0
-254 227 0
-255 228 0
-256 229 0
-257 230 0
-258 231 0
-259 232 0
-260 233 0
-243 225 0
-244 226 0
-245 227 0
-246 228 0
-247 229 0
-248 230 0
-249 231 0
-250 232 0
-251 233 0
-243 -252 226 0
-243 -253 227 0
-243 -254 228 0
-243 -255 229 0
-243 -256 230 0
-243 -257 231 0
-243 -258 232 0
-243 -259 233 0
-243 -260 234 0
-244 -252 227 0
-244 -253 228 0
-244 -254 229 0
-244 -255 230 0
-244 -256 231 0
-244 -257 232 0
-244 -258 233 0
-244 -259 234 0
-244 -260 235 0
-245 -252 228 0
-245 -253 229 0
-245 -254 230 0
-245 -255 231 0
-245 -256 232 0
-245 -257 233 0
-245 -258 234 0
-245 -259 235 0
-245 -260 236 0
-246 -252 229 0
-246 -253 230 0
-246 -254 231 0
-246 -255 232 0
-246 -256 233 0
-246 -257 234 0
-246 -258 235 0
-246 -259 236 0
-246 -260 237 0
-247 -252 230 0
-247 -253 231 0
-247 -254 232 0
-247 -255 233 0
-247 -256 234 0
-247 -257 235 0
-247 -258 236 0
-247 -259 237 0
-247 -260 238 0
-248 -252 231 0
-248 -253 232 0
-248 -254 233 0
-248 -255 234 0
-248 -256 235 0
-248 -257 236 0
-248 -258 237 0
-248 -259 238 0
-248 -260 239 0
-249 -252 232 0
-249 -253 233 0
-249 -254 234 0
-249 -255 235 0
-249 -256 236 0
-249 -257 237 0
-249 -258 238 0
-249 -259 239 0
-249 -260 240 0
-250 -252 233 0
-250 -253 234 0
-250 -254 235 0
-250 -255 236 0
-250 -256 237 0
-250 -257 238 0
-250 -258 239 0
-250 -259 240 0
-250 -260 241 0
-251 -252 234 0
-251 -253 235 0
-251 -254 236 0
-251 -255 237 0
-251 -256 238 0
-251 -257 239 0
-251 -258 240 0
-251 -259 241 0
-251 -260 242 0
-266 252 0
-267 253 0
-268 254 0
-269 255 0
-261 252 0
-262 253 0
-263 254 0
-264 255 0
-265 256 0
-261 -266 253 0
-261 -267 254 0
-261 -268 255 0
-261 -269 256 0
-262 -266 254 0
-262 -267 255 0
-262 -268 256 0
-262 -269 257 0
-263 -266 255 0
-263 -267 256 0
-263 -268 257 0
-263 -269 258 0
-264 -266 256 0
-264 -267 257 0
-264 -268 258 0
-264 -269 259 0
-265 -266 257 0
-265 -267 258 0
-265 -268 259 0
-265 -269 260 0
-272 266 0
-273 267 0
-270 266 0
-271 267 0
-270 -272 267 0
-270 -273 268 0
-271 -272 268 0
-271 -273 269 0
-170 272 0
-169 272 0
-169 -170 273 0
-166 270 0
-165 270 0
-165 -166 271 0
-277 261 0
-278 262 0
-274 261 0
-275 262 0
-276 263 0
-274 -277 262 0
-274 -278 263 0
-275 -277 263 0
-275 -278 264 0
-276 -277 264 0
-276 -278 265 0
-162 277 0
-161 277 0
-161 -162 278 0
-158 274 0
-279 274 0
-280 275 0
-279 -158 275 0
-280 -158 276 0
-157 279 0
-154 279 0
-154 -157 280 0
-286 243 0
-287 244 0
-288 245 0
-289 246 0
-281 243 0
-282 244 0
-283 245 0
-284 246 0
-285 247 0
-281 -286 244 0
-281 -287 245 0
-281 -288 246 0
-281 -289 247 0
-282 -286 245 0
-282 -287 246 0
-282 -288 247 0
-282 -289 248 0
-283 -286 246 0
-283 -287 247 0
-283 -288 248 0
-283 -289 249 0
-284 -286 247 0
-284 -287 248 0
-284 -288 249 0
-284 -289 250 0
-285 -286 248 0
-285 -287 249 0
-285 -288 250 0
-285 -289 251 0
-292 286 0
-293 287 0
-290 286 0
-291 287 0
-290 -292 287 0
-290 -293 288 0
-291 -292 288 0
-291 -293 289 0
-153 292 0
-150 292 0
-150 -153 293 0
-149 290 0
-146 290 0
-146 -149 291 0
-297 281 0
-298 282 0
-294 281 0
-295 282 0
-296 283 0
-294 -297 282 0
-294 -298 283 0
-295 -297 283 0
-295 -298 284 0
-296 -297 284 0
-296 -298 285 0
-145 297 0
-142 297 0
-142 -145 298 0
-141 294 0
-299 294 0
-300 295 0
-299 -141 295 0
-300 -141 296 0
-138 299 0
-137 299 0
-137 -138 300 0
-310 207 0
-311 208 0
-312 209 0
-313 210 0
-314 211 0
-315 212 0
-316 213 0
-317 214 0
-318 215 0
-301 207 0
-302 208 0
-303 209 0
-304 210 0
-305 211 0
-306 212 0
-307 213 0
-308 214 0
-309 215 0
-301 -310 208 0
-301 -311 209 0
-301 -312 210 0
-301 -313 211 0
-301 -314 212 0
-301 -315 213 0
-301 -316 214 0
-301 -317 215 0
-301 -318 216 0
-302 -310 209 0
-302 -311 210 0
-302 -312 211 0
-302 -313 212 0
-302 -314 213 0
-302 -315 214 0
-302 -316 215 0
-302 -317 216 0
-302 -318 217 0
-303 -310 210 0
-303 -311 211 0
-303 -312 212 0
-303 -313 213 0
-303 -314 214 0
-303 -315 215 0
-303 -316 216 0
-303 -317 217 0
-303 -318 218 0
-304 -310 211 0
-304 -311 212 0
-304 -312 213 0
-304 -313 214 0
-304 -314 215 0
-304 -315 216 0
-304 -316 217 0
-304 -317 218 0
-304 -318 219 0
-305 -310 212 0
-305 -311 213 0
-305 -312 214 0
-305 -313 215 0
-305 -314 216 0
-305 -315 217 0
-305 -316 218 0
-305 -317 219 0
-305 -318 220 0
-306 -310 213 0
-306 -311 214 0
-306 -312 215 0
-306 -313 216 0
-306 -314 217 0
-306 -315 218 0
-306 -316 219 0
-306 -317 220 0
-306 -318 221 0
-307 -310 214 0
-307 -311 215 0
-307 -312 216 0
-307 -313 217 0
-307 -314 218 0
-307 -315 219 0
-307 -316 220 0
-307 -317 221 0
-307 -318 222 0
-308 -310 215 0
-308 -311 216 0
-308 -312 217 0
-308 -313 218 0
-308 -314 219 0
-308 -315 220 0
-308 -316 221 0
-308 -317 222 0
-308 -318 223 0
-309 -310 216 0
-309 -311 217 0
-309 -312 218 0
-309 -313 219 0
-309 -314 220 0
-309 -315 221 0
-309 -316 222 0
-309 -317 223 0
-309 -318 224 0
-324 310 0
-325 311 0
-326 312 0
-327 313 0
-319 310 0
-320 311 0
-321 312 0
-322 313 0
-323 314 0
-319 -324 311 0
-319 -325 312 0
-319 -326 313 0
-319 -327 314 0
-320 -324 312 0
-320 -325 313 0
-320 -326 314 0
-320 -327 315 0
-321 -324 313 0
-321 -325 314 0
-321 -326 315 0
-321 -327 316 0
-322 -324 314 0
-322 -325 315 0
-322 -326 316 0
-322 -327 317 0
-323 -324 315 0
-323 -325 316 0
-323 -326 317 0
-323 -327 318 0
-330 324 0
-331 325 0
-328 324 0
-329 325 0
-328 -330 325 0
-328 -331 326 0
-329 -330 326 0
-329 -331 327 0
168 330 0
167 330 0
167 168 331 0
164 328 0
163 328 0
163 164 329 0
-335 319 0
-336 320 0
-332 319 0
-333 320 0
-334 321 0
-332 -335 320 0
-332 -336 321 0
-333 -335 321 0
-333 -336 322 0
-334 -335 322 0
-334 -336 323 0
160 335 0
159 335 0
159 160 336 0
156 332 0
-337 332 0
-338 333 0
-337 156 333 0
-338 156 334 0
155 337 0
152 337 0
152 155 338 0
-344 301 0
-345 302 0
-346 303 0
-347 304 0
-339 301 0
-340 302 0
-341 303 0
-342 304 0
-343 305 0
-339 -344 302 0
-339 -345 303 0
-339 -346 304 0
-339 -347 305 0
-340 -344 303 0
-340 -345 304 0
-340 -346 305 0
-340 -347 306 0
-341 -344 304 0
-341 -345 305 0
-341 -346 306 0
-341 -347 307 0
-342 -344 305 0
-342 -345 306 0
-342 -346 307 0
-342 -347 308 0
-343 -344 306 0
-343 -345 307 0
-343 -346 308 0
-343 -347 309 0
-350 344 0
-351 345 0
-348 344 0
-349 345 0
-348 -350 345 0
-348 -351 346 0
-349 -350 346 0
-349 -351 347 0
151 350 0
148 350 0
148 151 351 0
147 348 0
144 348 0
144 147 349 0
-355 339 0
-356 340 0
-352 339 0
-353 340 0
-354 341 0
-352 -355 340 0
-352 -356 341 0
-353 -355 341 0
-353 -356 342 0
-354 -355 342 0
-354 -356 343 0
143 355 0
140 355 0
140 143 356 0
139 352 0
-357 352 0
-358 353 0
-357 139 353 0
-358 139 354 0
136 357 0
135 357 0
135 136 358 0
-190 0
-413 359 0
-414 360 0
-415 361 0
-416 362 0
-417 363 0
-418 364 0
-419 365 0
-420 366 0
-421 367 0
-422 368 0
-423 369 0
-424 370 0
-425 371 0
-426 372 0
-427 373 0
-428 374 0
-429 375 0
-430 376 0
-395 359 0
-396 360 0
-397 361 0
-398 362 0
-399 363 0
-400 364 0
-401 365 0
-402 366 0
-403 367 0
-404 368 0
-405 369 0
-406 370 0
-407 371 0
-408 372 0
-409 373 0
-410 374 0
-411 375 0
-412 376 0
-395 -413 360 0
-395 -414 361 0
-395 -415 362 0
-395 -416 363 0
-395 -417 364 0
-395 -418 365 0
-395 -419 366 0
-395 -420 367 0
-395 -421 368 0
-395 -422 369 0
-395 -423 370 0
-395 -424 371 0
-395 -425 372 0
-395 -426 373 0
-395 -427 374 0
-395 -428 375 0
-395 -429 376 0
-395 -430 377 0
-396 -413 361 0
-396 -414 362 0
-396 -415 363 0
-396 -416 364 0
-396 -417 365 0
-396 -418 366 0
-396 -419 367 0
-396 -420 368 0
-396 -421 369 0
-396 -422 370 0
-396 -423 371 0
-396 -424 372 0
-396 -425 373 0
-396 -426 374 0
-396 -427 375 0
-396 -428 376 0
-396 -429 377 0
-396 -430 378 0
-397 -413 362 0
-397 -414 363 0
-397 -415 364 0
-397 -416 365 0
-397 -417 366 0
-397 -418 367 0
-397 -419 368 0
-397 -420 369 0
-397 -421 370 0
-397 -422 371 0
-397 -423 372 0
-397 -424 373 0
-397 -425 374 0
-397 -426 375 0
-397 -427 376 0
-397 -428 377 0
-397 -429 378 0
-397 -430 379 0
-398 -413 363 0
-398 -414 364 0
-398 -415 365 0
-398 -416 366 0
-398 -417 367 0
-398 -418 368 0
-398 -419 369 0
-398 -420 370 0
-398 -421 371 0
-398 -422 372 0
-398 -423 373 0
-398 -424 374 0
-398 -425 375 0
-398 -426 376 0
-398 -427 377 0
-398 -428 378 0
-398 -429 379 0
-398 -430 380 0
-399 -413 364 0
-399 -414 365 0
-399 -415 366 0
-399 -416 367 0
-399 -417 368 0
-399 -418 369 0
-399 -419 370 0
-399 -420 371 0
-399 -421 372 0
-399 -422 373 0
-399 -423 374 0
-399 -424 375 0
-399 -425 376 0
-399 -426 377 0
-399 -427 378 0
-399 -428 379 0
-399 -429 380 0
-399 -430 381 0
-400 -413 365 0
-400 -414 366 0
-400 -415 367 0
-400 -416 368 0
-400 -417 369 0
-400 -418 370 0
-400 -419 371 0
-400 -420 372 0
-400 -421 373 0
-400 -422 374 0
-400 -423 375 0
-400 -424 376 0
-400 -425 377 0
-400 -426 378 0
-400 -427 379 0
-400 -428 380 0
-400 -429 381 0
-400 -430 382 0
-401 -413 366 0
-401 -414 367 0
-401 -415 368 0
-401 -416 369 0
-401 -417 370 0
-401 -418 371 0
-401 -419 372 0
-401 -420 373 0
-401 -421 374 0
-401 -422 375 0
-401 -423 376 0
-401 -424 377 0
-401 -425 378 0
-401 -426 379 0
-401 -427 380 0
-401 -428 381 0
-401 -429 382 0
-401 -430 383 0
-402 -413 367 0
-402 -414 368 0
-402 -415 369 0
-402 -416 370 0
-402 -417 371 0
-402 -418 372 0
-402 -419 373 0
-402 -420 374 0
-402 -421 375 0
-402 -422 376 0
-402 -423 377 0
-402 -424 378 0
-402 -425 379 0
-402 -426 380 0
-402 -427 381 0
-402 -428 382 0
-402 -429 383 0
-402 -430 384 0
-403 -413 368 0
-403 -414 369 0
-403 -415 370 0
-403 -416 371 0
-403 -417 372 0
-403 -418 373 0
-403 -419 374 0
-403 -420 375 0
-403 -421 376 0
-403 -422 377 0
-403 -423 378 0
-403 -424 379 0
-403 -425 380 0
-403 -426 381 0
-403 -427 382 0
-403 -428 383 0
-403 -429 384 0
-403 -430 385 0
-404 -413 369 0
-404 -414 370 0
-404 -415 371 0
-404 -416 372 0
-404 -417 373 0
-404 -418 374 0
-404 -419 375 0
-404 -420 376 0
-404 -421 377 0
-404 -422 378 0
-404 -423 379 0
-404 -424 380 0
-404 -425 381 0
-404 -426 382 0
-404 -427 383 0
-404 -428 384 0
-404 -429 385 0
-404 -430 386 0
-405 -413 370 0
-405 -414 371 0
-405 -415 372 0
-405 -416 373 0
-405 -417 374 0
-405 -418 375 0
-405 -419 376 0
-405 -420 377 0
-405 -421 378 0
-405 -422 379 0
-405 -423 380 0
-405 -424 381 0
-405 -425 382 0
-405 -426 383 0
-405 -427 384 0
-405 -428 385 0
-405 -429 386 0
-405 -430 387 0
-406 -413 371 0
-406 -414 372 0
-406 -415 373 0
-406 -416 374 0
-406 -417 375 0
-406 -418 376 0
-406 -419 377 0
-406 -420 378 0
-406 -421 379 0
-406 -422 380 0
-406 -423 381 0
-406 -424 382 0
-406 -425 383 0
-406 -426 384 0
-406 -427 385 0
-406 -428 386 0
-406 -429 387 0
-406 -430 388 0
-407 -413 372 0
-407 -414 373 0
-407 -415 374 0
-407 -416 375 0
-407 -417 376 0
-407 -418 377 0
-407 -419 378 0
-407 -420 379 0
-407 -421 380 0
-407 -422 381 0
-407 -423 382 0
-407 -424 383 0
-407 -425 384 0
-407 -426 385 0
-407 -427 386 0
-407 -428 387 0
-407 -429 388 0
-407 -430 389 0
-408 -413 373 0
-408 -414 374 0
-408 -415 375 0
-408 -416 376 0
-408 -417 377 0
-408 -418 378 0
-408 -419 379 0
-408 -420 380 0
-408 -421 381 0
-408 -422 382 0
-408 -423 383 0
-408 -424 384 0
-408 -425 385 0
-408 -426 386 0
-408 -427 387 0
-408 -428 388 0
-408 -429 389 0
-408 -430 390 0
-409 -413 374 0
-409 -414 375 0
-409 -415 376 0
-409 -416 377 0
-409 -417 378 0
-409 -418 379 0
-409 -419 380 0
-409 -420 381 0
-409 -421 382 0
-409 -422 383 0
-409 -423 384 0
-409 -424 385 0
-409 -425 386 0
-409 -426 387 0
-409 -427 388 0
-409 -428 389 0
-409 -429 390 0
-409 -430 391 0
-410 -413 375 0
-410 -414 376 0
-410 -415 377 0
-410 -416 378 0
-410 -417 379 0
-410 -418 380 0
-410 -419 381 0
-410 -420 382 0
-410 -421 383 0
-410 -422 384 0
-410 -423 385 0
-410 -424 386 0
-410 -425 387 0
-410 -426 388 0
-410 -427 389 0
-410 -428 390 0
-410 -429 391 0
-410 -430 392 0
-411 -413 376 0
-411 -414 377 0
-411 -415 378 0
-411 -416 379 0
-411 -417 380 0
-411 -418 381 0
-411 -419 382 0
-411 -420 383 0
-411 -421 384 0
-411 -422 385 0
-411 -423 386 0
-411 -424 387 0
-411 -425 388 0
-411 -426 389 0
-411 -427 390 0
-411 -428 391 0
-411 -429 392 0
-411 -430 393 0
-412 -413 377 0
-412 -414 378 0
-412 -415 379 0
-412 -416 380 0
-412 -417 381 0
-412 -418 382 0
-412 -419 383 0
-412 -420 384 0
-412 -421 385 0
-412 -422 386 0
-412 -423 387 0
-412 -424 388 0
-412 -425 389 0
-412 -426 390 0
-412 -427 391 0
-412 -428 392 0
-412 -429 393 0
-412 -430 394 0
-440 413 0
-441 414 0
-442 415 0
-443 416 0
-444 417 0
-445 418 0
-446 419 0
-447 420 0
-448 421 0
-431 413 0
-432 414 0
-433 415 0
-434 416 0
-435 417 0
-436 418 0
-437 419 0
-438 420 0
-439 421 0
-431 -440 414 0
-431 -441 415 0
-431 -442 416 0
-431 -443 417 0
-431 -444 418 0
-431 -445 419 0
-431 -446 420 0
-431 -447 421 0
-431 -448 422 0
-432 -440 415 0
-432 -441 416 0
-432 -442 417 0
-432 -443 418 0
-432 -444 419 0
-432 -445 420 0
-432 -446 421 0
-432 -447 422 0
-432 -448 423 0
-433 -440 416 0
-433 -441 417 0
-433 -442 418 0
-433 -443 419 0
-433 -444 420 0
-433 -445 421 0
-433 -446 422 0
-433 -447 423 0
-433 -448 424 0
-434 -440 417 0
-434 -441 418 0
-434 -442 419 0
-434 -443 420 0
-434 -444 421 0
-434 -445 422 0
-434 -446 423 0
-434 -447 424 0
-434 -448 425 0
-435 -440 418 0
-435 -441 419 0
-435 -442 420 0
-435 -443 421 0
-435 -444 422 0
-435 -445 423 0
-435 -446 424 0
-435 -447 425 0
-435 -448 426 0
-436 -440 419 0
-436 -441 420 0
-436 -442 421 0
-436 -443 422 0
-436 -444 423 0
-436 -445 424 0
-436 -446 425 0
-436 -447 426 0
-436 -448 427 0
-437 -440 420 0
-437 -441 421 0
-437 -442 422 0
-437 -443 423 0
-437 -444 424 0
-437 -445 425 0
-437 -446 426 0
-437 -447 427 0
-437 -448 428 0
-438 -440 421 0
-438 -441 422 0
-438 -442 423 0
-438 -443 424 0
-438 -444 425 0
-438 -445 426 0
-438 -446 427 0
-438 -447 428 0
-438 -448 429 0
-439 -440 422 0
-439 -441 423 0
-439 -442 424 0
-439 -443 425 0
-439 -444 426 0
-439 -445 427 0
-439 -446 428 0
-439 -447 429 0
-439 -448 430 0
-454 440 0
-455 441 0
-456 442 0
-457 443 0
-449 440 0
-450 441 0
-451 442 0
-452 443 0
-453 444 0
-449 -454 441 0
-449 -455 442 0
-449 -456 443 0
-449 -457 444 0
-450 -454 442 0
-450 -455 443 0
-450 -456 444 0
-450 -457 445 0
-451 -454 443 0
-451 -455 444 0
-451 -456 445 0
-451 -457 446 0
-452 -454 444 0
-452 -455 445 0
-452 -456 446 0
-452 -457 447 0
-453 -454 445 0
-453 -455 446 0
-453 -456 447 0
-453 -457 448 0
-460 454 0
-461 455 0
-458 454 0
-459 455 0
-458 -460 455 0
-458 -461 456 0
-459 -460 456 0
-459 -461 457 0
170 460 0
169 460 0
169 170 461 0
166 458 0
165 458 0
165 166 459 0
-465 449 0
-466 450 0
-462 449 0
-463 450 0
-464 451 0
-462 -465 450 0
-462 -466 451 0
-463 -465 451 0
-463 -466 452 0
-464 -465 452 0
-464 -466 453 0
162 465 0
161 465 0
161 162 466 0
158 462 0
-467 462 0
-468 463 0
-467 158 463 0
-468 158 464 0
157 467 0
154 467 0
154 157 468 0
-474 431 0
-475 432 0
-476 433 0
-477 434 0
-469 431 0
-470 432 0
-471 433 0
-472 434 0
-473 435 0
-469 -474 432 0
-469 -475 433 0
-469 -476 434 0
-469 -477 435 0
-470 -474 433 0
-470 -475 434 0
-470 -476 435 0
-470 -477 436 0
-471 -474 434 0
-471 -475 435 0
-471 -476 436 0
-471 -477 437 0
-472 -474 435 0
-472 -475 436 0
-472 -476 437 0
-472 -477 438 0
-473 -474 436 0
-473 -475 437 0
-473 -476 438 0
-473 -477 439 0
-480 474 0
-481 475 0
-478 474 0
-479 475 0
-478 -480 475 0
-478 -481 476 0
-479 -480 476 0
-479 -481 477 0
153 480 0
150 480 0
150 153 481 0
149 478 0
146 478 0
146 149 479 0
-485 469 0
-486 470 0
-482 469 0
-483 470 0
-484 471 0
-482 -485 470 0
-482 -486 471 0
-483 -485 471 0
-483 -486 472 0
-484 -485 472 0
-484 -486 473 0
145 485 0
142 485 0
142 145 486 0
141 482 0
-487 482 0
-488 483 0
-487 141 483 0
-488 141 484 0
138 487 0
137 487 0
137 138 488 0
-498 395 0
-499 396 0
-500 397 0
-501 398 0
-502 399 0
-503 400 0
-504 401 0
-505 402 0
-506 403 0
-489 395 0
-490 396 0
-491 397 0
-492 398 0
-493 399 0
-494 400 0
-495 401 0
-496 402 0
-497 403 0
-489 -498 396 0
-489 -499 397 0
-489 -500 398 0
-489 -501 399 0
-489 -502 400 0
-489 -503 401 0
-489 -504 402 0
-489 -505 403 0
-489 -506 404 0
-490 -498 397 0
-490 -499 398 0
-490 -500 399 0
-490 -501 400 0
-490 -502 401 0
-490 -503 402 0
-490 -504 403 0
-490 -505 404 0
-490 -506 405 0
-491 -498 398 0
-491 -499 399 0
-491 -500 400 0
-491 -501 401 0
-491 -502 402 0
-491 -503 403 0
-491 -504 404 0
-491 -505 405 0
-491 -506 406 0
-492 -498 399 0
-492 -499 400 0
-492 -500 401 0
-492 -501 402 0
-492 -502 403 0
-492 -503 404 0
-492 -504 405 0
-492 -505 406 0
-492 -506 407 0
-493 -498 400 0
-493 -499 401 0
-493 -500 402 0
-493 -501 403 0
-493 -502 404 0
-493 -503 405 0
-493 -504 406 0
-493 -505 407 0
-493 -506 408 0
-494 -498 401 0
-494 -499 402 0
-494 -500 403 0
-494 -501 404 0
-494 -502 405 0
-494 -503 406 0
-494 -504 407 0
-494 -505 408 0
-494 -506 409 0
-495 -498 402 0
-495 -499 403 0
-495 -500 404 0
-495 -501 405 0
-495 -502 406 0
-495 -503 407 0
-495 -504 408 0
-495 -505 409 0
-495 -506 410 0
-496 -498 403 0
-496 -499 404 0
-496 -500 405 0
-496 -501 406 0
-496 -502 407 0
-496 -503 408 0
-496 -504 409 0
-496 -505 410 0
-496 -506 411 0
-497 -498 404 0
-497 -499 405 0
-497 -500 406 0
-497 -501 407 0
-497 -502 408 0
-497 -503 409 0
-497 -504 410 0
-497 -505 411 0
-497 -506 412 0
-512 498 0
-513 499 0
-514 500 0
-515 501 0
-507 498 0
-508 499 0
-509 500 0
-510 501 0
-511 502 0
-507 -512 499 0
-507 -513 500 0
-507 -514 501 0
-507 -515 502 0
-508 -512 500 0
-508 -513 501 0
-508 -514 502 0
-508 -515 503 0
-509 -512 501 0
-509 -513 502 0
-509 -514 503 0
-509 -515 504 0
-510 -512 502 0
-510 -513 503 0
-510 -514 504 0
-510 -515 505 0
-511 -512 503 0
-511 -513 504 0
-511 -514 505 0
-511 -515 506 0
-518 512 0
-519 513 0
-516 512 0
-517 513 0
-516 -518 513 0
-516 -519 514 0
-517 -518 514 0
-517 -519 515 0
-168 518 0
-167 518 0
-167 -168 519 0
-164 516 0
-163 516 0
-163 -164 517 0
-523 507 0
-524 508 0
-520 507 0
-521 508 0
-522 509 0
-520 -523 508 0
-520 -524 509 0
-521 -523 509 0
-521 -524 510 0
-522 -523 510 0
-522 -524 511 0
-160 523 0
-159 523 0
-159 -160 524 0
-156 520 0
-525 520 0
-526 521 0
-525 -156 521 0
-526 -156 522 0
-155 525 0
-152 525 0
-152 -155 526 0
-532 489 0
-533 490 0
-534 491 0
-535 492 0
-527 489 0
-528 490 0
-529 491 0
-530 492 0
-531 493 0
-527 -532 490 0
-527 -533 491 0
-527 -534 492 0
-527 -535 493 0
-528 -532 491 0
-528 -533 492 0
-528 -534 493 0
-528 -535 494 0
-529 -532 492 0
-529 -533 493 0
-529 -534 494 0
-529 -535 495 0
-530 -532 493 0
-530 -533 494 0
-530 -534 495 0
-530 -535 496 0
-531 -532 494 0
-531 -533 495 0
-531 -534 496 0
-531 -535 497 0
-538 532 0
-539 533 0
-536 532 0
-537 533 0
-536 -538 533 0
-536 -539 534 0
-537 -538 534 0
-537 -539 535 0
-151 538 0
-148 538 0
-148 -151 539 0
-147 536 0
-144 536 0
-144 -147 537 0
-543 527 0
-544 528 0
-540 527 0
-541 528 0
-542 529 0
-540 -543 528 0
-540 -544 529 0
-541 -543 529 0
-541 -544 530 0
-542 -543 530 0
-542 -544 531 0
-143 543 0
-140 543 0
-140 -143 544 0
-139 540 0
-545 540 0
-546 541 0
-545 -139 541 0
-546 -139 542 0
-136 545 0
-135 545 0
-135 -136 546 0
-376 0
-547 1 0
-547 2 0
547 -1 -2 0
-548 10 0
-548 11 0
548 -10 -11 0
-549 1 0
-549 11 0
549 -1 -11 0
-550 10 0
-550 2 0
550 -10 -2 0
-551 2 0
-551 3 0
551 -2 -3 0
-552 11 0
-552 12 0
552 -11 -12 0
-553 2 0
-553 12 0
553 -2 -12 0
-554 11 0
-554 3 0
554 -11 -3 0
-555 3 0
-555 1 0
555 -3 -1 0
-556 12 0
-556 10 0
556 -12 -10 0
-557 3 0
-557 10 0
557 -3 -10 0
-558 12 0
-558 1 0
558 -12 -1 0
-559 4 0
-559 5 0
559 -4 -5 0
-560 13 0
-560 14 0
560 -13 -14 0
-561 4 0
-561 14 0
561 -4 -14 0
-562 13 0
-562 5 0
562 -13 -5 0
-563 5 0
-563 6 0
563 -5 -6 0
-564 14 0
-564 15 0
564 -14 -15 0
-565 5 0
-565 15 0
565 -5 -15 0
-566 14 0
-566 6 0
566 -14 -6 0
-567 6 0
-567 4 0
567 -6 -4 0
-568 15 0
-568 13 0
568 -15 -13 0
-569 6 0
-569 13 0
569 -6 -13 0
-570 15 0
-570 4 0
570 -15 -4 0
-571 7 0
-571 8 0
571 -7 -8 0
-572 16 0
-572 17 0
572 -16 -17 0
-573 7 0
-573 17 0
573 -7 -17 0
-574 16 0
-574 8 0
574 -16 -8 0
-575 8 0
-575 9 0
575 -8 -9 0
-576 17 0
-576 18 0
576 -17 -18 0
-577 8 0
-577 18 0
577 -8 -18 0
-578 17 0
-578 9 0
578 -17 -9 0
-579 9 0
-579 7 0
579 -9 -7 0
-580 18 0
-580 16 0
580 -18 -16 0
-581 9 0
-581 16 0
581 -9 -16 0
-582 18 0
-582 7 0
582 -18 -7 0
-637 583 0
-638 584 0
-639 585 0
-640 586 0
-641 587 0
-642 588 0
-643 589 0
-644 590 0
-645 591 0
-646 592 0
-647 593 0
-648 594 0
-649 595 0
-650 596 0
-651 597 0
-652 598 0
-653 599 0
-654 600 0
-619 583 0
-620 584 0
-621 585 0
-622 586 0
-623 587 0
-624 588 0
-625 589 0
-626 590 0
-627 591 0
-628 592 0
-629 593 0
-630 594 0
-631 595 0
-632 596 0
-633 597 0
-634 598 0
-635 599 0
-636 600 0
-619 -637 584 0
-619 -638 585 0
-619 -639 586 0
-619 -640 587 0
-619 -641 588 0
-619 -642 589 0
-619 -643 590 0
-619 -644 591 0
-619 -645 592 0
-619 -646 593 0
-619 -647 594 0
-619 -648 595 0
-619 -649 596 0
-619 -650 597 0
-619 -651 598 0
-619 -652 599 0
-619 -653 600 0
-619 -654 601 0
-620 -637 585 0
-620 -638 586 0
-620 -639 587 0
-620 -640 588 0
-620 -641 589 0
-620 -642 590 0
-620 -643 591 0
-620 -644 592 0
-620 -645 593 0
-620 -646 594 0
-620 -647 595 0
-620 -648 596 0
-620 -649 597 0
-620 -650 598 0
-620 -651 599 0
-620 -652 600 0
-620 -653 601 0
-620 -654 602 0
-621 -637 586 0
-621 -638 587 0
-621 -639 588 0
-621 -640 589 0
-621 -641 590 0
-621 -642 591 0
-621 -643 592 0
-621 -644 593 0
-621 -645 594 0
-621 -646 595 0
-621 -647 596 0
-621 -648 597 0
-621 -649 598 0
-621 -650 599 0
-621 -651 600 0
-621 -652 601 0
-621 -653 602 0
-621 -654 603 0
-622 -637 587 0
-622 -638 588 0
-622 -639 589 0
-622 -640 590 0
-622 -641 591 0
-622 -642 592 0
-622 -643 593 0
-622 -644 594 0
-622 -645 595 0
-622 -646 596 0
-622 -647 597 0
-622 -648 598 0
-622 -649 599 0
-622 -650 600 0
-622 -651 601 0
-622 -652 602 0
-622 -653 603 0
-622 -654 604 0
-623 -637 588 0
-623 -638 589 0
-623 -639 590 0
-623 -640 591 0
-623 -641 592 0
-623 -642 593 0
-623 -643 594 0
-623 -644 595 0
-623 -645 596 0
-623 -646 597 0
-623 -647 598 0
-623 -648 599 0
-623 -649 600 0
-623 -650 601 0
-623 -651 602 0
-623 -652 603 0
-623 -653 604 0
-623 -654 605 0
-624 -637 589 0
-624 -638 590 0
-624 -639 591 0
-624 -640 592 0
-624 -641 593 0
-624 -642 594 0
-624 -643 595 0
-624 -644 596 0
-624 -645 597 0
-624 -646 598 0
-624 -647 599 0
-624 -648 600 0
-624 -649 601 0
-624 -650 602 0
-624 -651 603 0
-624 -652 604 0
-624 -653 605 0
-624 -654 606 0
-625 -637 590 0
-625 -638 591 0
-625 -639 592 0
-625 -640 593 0
-625 -641 594 0
-625 -642 595 0
-625 -643 596 0
-625 -644 597 0
-625 -645 598 0
-625 -646 599 0
-625 -647 600 0
-625 -648 601 0
-625 -649 602 0
-625 -650 603 0
-625 -651 604 0
-625 -652 605 0
-625 -653 606 0
-625 -654 607 0
-626 -637 591 0
-626 -638 592 0
-626 -639 593 0
-626 -640 594 0
-626 -641 595 0
-626 -642 596 0
-626 -643 597 0
-626 -644 598 0
-626 -645 599 0
-626 -646 600 0
-626 -647 601 0
-626 -648 602 0
-626 -649 603 0
-626 -650 604 0
-626 -651 605 0
-626 -652 606 0
-626 -653 607 0
-626 -654 608 0
-627 -637 592 0
-627 -638 593 0
-627 -639 594 0
-627 -640 595 0
-627 -641 596 0
-627 -642 597 0
-627 -643 598 0
-627 -644 599 0
-627 -645 600 0
-627 -646 601 0
-627 -647 602 0
-627 -648 603 0
-627 -649 604 0
-627 -650 605 0
-627 -651 606 0
-627 -652 607 0
-627 -653 608 0
-627 -654 609 0
-628 -637 593 0
-628 -638 594 0
-628 -639 595 0
-628 -640 596 0
-628 -641 597 0
-628 -642 598 0
-628 -643 599 0
-628 -644 600 0
-628 -645 601 0
-628 -646 602 0
-628 -647 603 0
-628 -648 604 0
-628 -649 605 0
-628 -650 606 0
-628 -651 607 0
-628 -652 608 0
-628 -653 609 0
-628 -654 610 0
-629 -637 594 0
-629 -638 595 0
-629 -639 596 0
-629 -640 597 0
-629 -641 598 0
-629 -642 599 0
-629 -643 600 0
-629 -644 601 0
-629 -645 602 0
-629 -646 603 0
-629 -647 604 0
-629 -648 605 0
-629 -649 606 0
-629 -650 607 0
-629 -651 608 0
-629 -652 609 0
-629 -653 610 0
-629 -654 611 0
-630 -637 595 0
-630 -638 596 0
-630 -639 597 0
-630 -640 598 0
-630 -641 599 0
-630 -642 600 0
-630 -643 601 0
-630 -644 602 0
-630 -645 603 0
-630 -646 604 0
-630 -647 605 0
-630 -648 606 0
-630 -649 607 0
-630 -650 608 0
-630 -651 609 0
-630 -652 610 0
-630 -653 611 0
-630 -654 612 0
-631 -637 596 0
-631 -638 597 0
-631 -639 598 0
-631 -640 599 0
-631 -641 600 0
-631 -642 601 0
-631 -643 602 0
-631 -644 603 0
-631 -645 604 0
-631 -646 605 0
-631 -647 606 0
-631 -648 607 0
-631 -649 608 0
-631 -650 609 0
-631 -651 610 0
-631 -652 611 0
-631 -653 612 0
-631 -654 613 0
-632 -637 597 0
-632 -638 598 0
-632 -639 599 0
-632 -640 600 0
-632 -641 601 0
-632 -642 602 0
-632 -643 603 0
-632 -644 604 0
-632 -645 605 0
-632 -646 606 0
-632 -647 607 0
-632 -648 608 0
-632 -649 609 0
-632 -650 610 0
-632 -651 611 0
-632 -652 612 0
-632 -653 613 0
-632 -654 614 0
-633 -637 598 0
-633 -638 599 0
-633 -639 600 0
-633 -640 601 0
-633 -641 602 0
-633 -642 603 0
-633 -643 604 0
-633 -644 605 0
-633 -645 606 0
-633 -646 607 0
-633 -647 608 0
-633 -648 609 0
-633 -649 610 0
-633 -650 611 0
-633 -651 612 0
-633 -652 613 0
-633 -653 614 0
-633 -654 615 0
-634 -637 599 0
-634 -638 600 0
-634 -639 601 0
-634 -640 602 0
-634 -641 603 0
-634 -642 604 0
-634 -643 605 0
-634 -644 606 0
-634 -645 607 0
-634 -646 608 0
-634 -647 609 0
-634 -648 610 0
-634 -649 611 0
-634 -650 612 0
-634 -651 613 0
-634 -652 614 0
-634 -653 615 0
-634 -654 616 0
-635 -637 600 0
-635 -638 601 0
-635 -639 602 0
-635 -640 603 0
-635 -641 604 0
-635 -642 605 0
-635 -643 606 0
-635 -644 607 0
-635 -645 608 0
-635 -646 609 0
-635 -647 610 0
-635 -648 611 0
-635 -649 612 0
-635 -650 613 0
-635 -651 614 0
-635 -652 615 0
-635 -653 616 0
-635 -654 617 0
-636 -637 601 0
-636 -638 602 0
-636 -639 603 0
-636 -640 604 0
-636 -641 605 0
-636 -642 606 0
-636 -643 607 0
-636 -644 608 0
-636 -645 609 0
-636 -646 610 0
-636 -647 611 0
-636 -648 612 0
-636 -649 613 0
-636 -650 614 0
-636 -651 615 0
-636 -652 616 0
-636 -653 617 0
-636 -654 618 0
-664 637 0
-665 638 0
-666 639 0
-667 640 0
-668 641 0
-669 642 0
-670 643 0
-671 644 0
-672 645 0
-655 637 0
-656 638 0
-657 639 0
-658 640 0
-659 641 0
-660 642 0
-661 643 0
-662 644 0
-663 645 0
-655 -664 638 0
-655 -665 639 0
-655 -666 640 0
-655 -667 641 0
-655 -668 642 0
-655 -669 643 0
-655 -670 644 0
-655 -671 645 0
-655 -672 646 0
-656 -664 639 0
-656 -665 640 0
-656 -666 641 0
-656 -667 642 0
-656 -668 643 0
-656 -669 644 0
-656 -670 645 0
-656 -671 646 0
-656 -672 647 0
-657 -664 640 0
-657 -665 641 0
-657 -666 642 0
-657 -667 643 0
-657 -668 644 0
-657 -669 645 0
-657 -670 646 0
-657 -671 647 0
-657 -672 648 0
-658 -664 641 0
-658 -665 642 0
-658 -666 643 0
-658 -667 644 0
-658 -668 645 0
-658 -669 646 0
-658 -670 647 0
-658 -671 648 0
-658 -672 649 0
-659 -664 642 0
-659 -665 643 0
-659 -666 644 0
-659 -667 645 0
-659 -668 646 0
-659 -669 647 0
-659 -670 648 0
-659 -671 649 0
-659 -672 650 0
-660 -664 643 0
-660 -665 644 0
-660 -666 645 0
-660 -667 646 0
-660 -668 647 0
-660 -669 648 0
-660 -670 649 0
-660 -671 650 0
-660 -672 651 0
-661 -664 644 0
-661 -665 645 0
-661 -666 646 0
-661 -667 647 0
-661 -668 648 0
-661 -669 649 0
-661 -670 650 0
-661 -671 651 0
-661 -672 652 0
-662 -664 645 0
-662 -665 646 0
-662 -666 647 0
-662 -667 648 0
-662 -668 649 0
-662 -669 650 0
-662 -670 651 0
-662 -671 652 0
-662 -672 653 0
-663 -664 646 0
-663 -665 647 0
-663 -666 648 0
-663 -667 649 0
-663 -668 650 0
-663 -669 651 0
-663 -670 652 0
-663 -671 653 0
-663 -672 654 0
-678 664 0
-679 665 0
-680 666 0
-681 667 0
-673 664 0
-674 665 0
-675 666 0
-676 667 0
-677 668 0
-673 -678 665 0
-673 -679 666 0
-673 -680 667 0
-673 -681 668 0
-674 -678 666 0
-674 -679 667 0
-674 -680 668 0
-674 -681 669 0
-675 -678 667 0
-675 -679 668 0
-675 -680 669 0
-675 -681 670 0
-676 -678 668 0
-676 -679 669 0
-676 -680 670 0
-676 -681 671 0
-677 -678 669 0
-677 -679 670 0
-677 -680 671 0
-677 -681 672 0
-684 678 0
-685 679 0
-682 678 0
-683 679 0
-682 -684 679 0
-682 -685 680 0
-683 -684 680 0
-683 -685 681 0
-582 684 0
-581 684 0
-581 -582 685 0
-578 682 0
-577 682 0
-577 -578 683 0
-689 673 0
-690 674 0
-686 673 0
-687 674 0
-688 675 0
-686 -689 674 0
-686 -690 675 0
-687 -689 675 0
-687 -690 676 0
-688 -689 676 0
-688 -690 677 0
-574 689 0
-573 689 0
-573 -574 690 0
-570 686 0
-691 686 0
-692 687 0
-691 -570 687 0
-692 -570 688 0
-569 691 0
-566 691 0
-566 -569 692 0
-698 655 0
-699 656 0
-700 657 0
-701 658 0
-693 655 0
-694 656 0
-695 657 0
-696 658 0
-697 659 0
-693 -698 656 0
-693 -699 657 0
-693 -700 658 0
-693 -701 659 0
-694 -698 657 0
-694 -699 658 0
-694 -700 659 0
-694 -701 660 0
-695 -698 658 0
-695 -699 659 0
-695 -700 660 0
-695 -701 661 0
-696 -698 659 0
-696 -699 660 0
-696 -700 661 0
-696 -701 662 0
-697 -698 660 0
-697 -699 661 0
-697 -700 662 0
-697 -701 663 0
-704 698 0
-705 699 0
-702 698 0
-703 699 0
-702 -704 699 0
-702 -705 700 0
-703 -704 700 0
-703 -705 701 0
-565 704 0
-562 704 0
-562 -565 705 0
-561 702 0
-558 702 0
-558 -561 703 0
-709 693 0
-710 694 0
-706 693 0
-707 694 0
-708 695 0
-706 -709 694 0
-706 -710 695 0
-707 -709 695 0
-707 -710 696 0
-708 -709 696 0
-708 -710 697 0
-557 709 0
-554 709 0
-554 -557 710 0
-553 706 0
-711 706 0
-712 707 0
-711 -553 707 0
-712 -553 708 0
-550 711 0
-549 711 0
-549 -550 712 0
-722 619 0
-723 620 0
-724 621 0
-725 622 0
-726 623 0
-727 624 0
-728 625 0
-729 626 0
-730 627 0
-713 619 0
-714 620 0
-715 621 0
-716 622 0
-717 623 0
-718 624 0
-719 625 0
-720 626 0
-721 627 0
-713 -722 620 0
-713 -723 621 0
-713 -724 622 0
-713 -725 623 0
-713 -726 624 0
-713 -727 625 0
-713 -728 626 0
-713 -729 627 0
-713 -730 628 0
-714 -722 621 0
-714 -723 622 0
-714 -724 623 0
-714 -725 624 0
-714 -726 625 0
-714 -727 626 0
-714 -728 627 0
-714 -729 628 0
-714 -730 629 0
-715 -722 622 0
-715 -723 623 0
-715 -724 624 0
-715 -725 625 0
-715 -726 626 0
-715 -727 627 0
-715 -728 628 0
-715 -729 629 0
-715 -730 630 0
-716 -722 623 0
-716 -723 624 0
-716 -724 625 0
-716 -725 626 0
-716 -726 627 0
-716 -727 628 0
-716 -728 629 0
-716 -729 630 0
-716 -730 631 0
-717 -722 624 0
-717 -723 625 0
-717 -724 626 0
-717 -725 627 0
-717 -726 628 0
-717 -727 629 0
-717 -728 630 0
-717 -729 631 0
-717 -730 632 0
-718 -722 625 0
-718 -723 626 0
-718 -724 627 0
-718 -725 628 0
-718 -726 629 0
-718 -727 630 0
-718 -728 631 0
-718 -729 632 0
-718 -730 633 0
-719 -722 626 0
-719 -723 627 0
-719 -724 628 0
-719 -725 629 0
-719 -726 630 0
-719 -727 631 0
-719 -728 632 0
-719 -729 633 0
-719 -730 634 0
-720 -722 627 0
-720 -723 628 0
-720 -724 629 0
-720 -725 630 0
-720 -726 631 0
-720 -727 632 0
-720 -728 633 0
-720 -729 634 0
-720 -730 635 0
-721 -722 628 0
-721 -723 629 0
-721 -724 630 0
-721 -725 631 0
-721 -726 632 0
-721 -727 633 0
-721 -728 634 0
-721 -729 635 0
-721 -730 636 0
-736 722 0
-737 723 0
-738 724 0
-739 725 0
-731 722 0
-732 723 0
-733 724 0
-734 725 0
-735 726 0
-731 -736 723 0
-731 -737 724 0
-731 -738 725 0
-731 -739 726 0
-732 -736 724 0
-732 -737 725 0
-732 -738 726 0
-732 -739 727 0
-733 -736 725 0
-733 -737 726 0
-733 -738 727 0
-733 -739 728 0
-734 -736 726 0
-734 -737 727 0
-734 -738 728 0
-734 -739 729 0
-735 -736 727 0
-735 -737 728 0
-735 -738 729 0
-735 -739 730 0
-742 736 0
-743 737 0
-740 736 0
-741 737 0
-740 -742 737 0
-740 -743 738 0
-741 -742 738 0
-741 -743 739 0
580 742 0
579 742 0
579 580 743 0
576 740 0
575 740 0
575 576 741 0
-747 731 0
-748 732 0
-744 731 0
-745 732 0
-746 733 0
-744 -747 732 0
-744 -748 733 0
-745 -747 733 0
-745 -748 734 0
-746 -747 734 0
-746 -748 735 0
572 747 0
571 747 0
571 572 748 0
568 744 0
-749 744 0
-750 745 0
-749 568 745 0
-750 568 746 0
567 749 0
564 749 0
564 567 750 0
-756 713 0
-757 714 0
-758 715 0
-759 716 0
-751 713 0
-752 714 0
-753 715 0
-754 716 0
-755 717 0
-751 -756 714 0
-751 -757 715 0
-751 -758 716 0
-751 -759 717 0
-752 -756 715 0
-752 -757 716 0
-752 -758 717 0
-752 -759 718 0
-753 -756 716 0
-753 -757 717 0
-753 -758 718 0
-753 -759 719 0
-754 -756 717 0
-754 -757 718 0
-754 -758 719 0
-754 -759 720 0
-755 -756 718 0
-755 -757 719 0
-755 -758 720 0
-755 -759 721 0
-762 756 0
-763 757 0
-760 756 0
-761 757 0
-760 -762 757 0
-760 -763 758 0
-761 -762 758 0
-761 -763 759 0
563 762 0
560 762 0
560 563 763 0
559 760 0
556 760 0
556 559 761 0
-767 751 0
-768 752 0
-764 751 0
-765 752 0
-766 753 0
-764 -767 752 0
-764 -768 753 0
-765 -767 753 0
-765 -768 754 0
-766 -767 754 0
-766 -768 755 0
555 767 0
552 767 0
552 555 768 0
551 764 0
-769 764 0
-770 765 0
-769 551 765 0
-770 551 766 0
548 769 0
547 769 0
547 548 770 0
-602 0
-825 771 0
-826 772 0
-827 773 0
-828 774 0
-829 775 0
-830 776 0
-831 777 0
-832 778 0
-833 779 0
-834 780 0
-835 781 0
-836 782 0
-837 783 0
-838 784 0
-839 785 0
-840 786 0
-841 787 0
-842 788 0
-807 771 0
-808 772 0
-809 773 0
-810 774 0
-811 775 0
-812 776 0
-813 777 0
-814 778 0
-815 779 0
-816 780 0
-817 781 0
-818 782 0
-819 783 0
-820 784 0
-821 785 0
-822 786 0
-823 787 0
-824 788 0
-807 -825 772 0
-807 -826 773 0
-807 -827 774 0
-807 -828 775 0
-807 -829 776 0
-807 -830 777 0
-807 -831 778 0
-807 -832 779 0
-807 -833 780 0
-807 -834 781 0
-807 -835 782 0
-807 -836 783 0
-807 -837 784 0
-807 -838 785 0
-807 -839 786 0
-807 -840 787 0
-807 -841 788 0
-807 -842 789 0
-808 -825 773 0
-808 -826 774 0
-808 -827 775 0
-808 -828 776 0
-808 -829 777 0
-808 -830 778 0
-808 -831 779 0
-808 -832 780 0
-808 -833 781 0
-808 -834 782 0
-808 -835 783 0
-808 -836 784 0
-808 -837 785 0
-808 -838 786 0
-808 -839 787 0
-808 -840 788 0
-808 -841 789 0
-808 -842 790 0
-809 -825 774 0
-809 -826 775 0
-809 -827 776 0
-809 -828 777 0
-809 -829 778 0
-809 -830 779 0
-809 -831 780 0
-809 -832 781 0
-809 -833 782 0
-809 -834 783 0
-809 -835 784 0
-809 -836 785 0
-809 -837 786 0
-809 -838 787 0
-809 -839 788 0
-809 -840 789 0
-809 -841 790 0
-809 -842 791 0
-810 -825 775 0
-810 -826 776 0
-810 -827 777 0
-810 -828 778 0
-810 -829 779 0
-810 -830 780 0
-810 -831 781 0
-810 -832 782 0
-810 -833 783 0
-810 -834 784 0
-810 -835 785 0
-810 -836 786 0
-810 -837 787 0
-810 -838 788 0
-810 -839 789 0
-810 -840 790 0
-810 -841 791 0
-810 -842 792 0
-811 -825 776 0
-811 -826 777 0
-811 -827 778 0
-811 -828 779 0
-811 -829 780 0
-811 -830 781 0
-811 -831 782 0
-811 -832 783 0
-811 -833 784 0
-811 -834 785 0
-811 -835 786 0
-811 -836 787 0
-811 -837 788 0
-811 -838 789 0
-811 -839 790 0
-811 -840 791 0
-811 -841 792 0
-811 -842 793 0
-812 -825 777 0
-812 -826 778 0
-812 -827 779 0
-812 -828 780 0
-812 -829 781 0
-812 -830 782 0
-812 -831 783 0
-812 -832 784 0
-812 -833 785 0
-812 -834 786 0
-812 -835 787 0
-812 -836 788 0
-812 -837 789 0
-812 -838 790 0
-812 -839 791 0
-812 -840 792 0
-812 -841 793 0
-812 -842 794 0
-813 -825 778 0
-813 -826 779 0
-813 -827 780 0
-813 -828 781 0
-813 -829 782 0
-813 -830 783 0
-813 -831 784 0
-813 -832 785 0
-813 -833 786 0
-813 -834 787 0
-813 -835 788 0
-813 -836 789 0
-813 -837 790 0
-813 -838 791 0
-813 -839 792 0
-813 -840 793 0
-813 -841 794 0
-813 -842 795 0
-814 -825 779 0
-814 -826 780 0
-814 -827 781 0
-814 -828 782 0
-814 -829 783 0
-814 -830 784 0
-814 -831 785 0
-814 -832 786 0
-814 -833 787 0
-814 -834 788 0
-814 -835 789 0
-814 -836 790 0
-814 -837 791 0
-814 -838 792 0
-814 -839 793 0
-814 -840 794 0
-814 -841 795 0
-814 -842 796 0
-815 -825 780 0
-815 -826 781 0
-815 -827 782 0
-815 -828 783 0
-815 -829 784 0
-815 -830 785 0
-815 -831 786 0
-815 -832 787 0
-815 -833 788 0
-815 -834 789 0
-815 -835 790 0
-815 -836 791 0
-815 -837 792 0
-815 -838 793 0
-815 -839 794 0
-815 -840 795 0
-815 -841 796 0
-815 -842 797 0
-816 -825 781 0
-816 -826 782 0
-816 -827 783 0
-816 -828 784 0
-816 -829 785 0
-816 -830 786 0
-816 -831 787 0
-816 -832 788 0
-816 -833 789 0
-816 -834 790 0
-816 -835 791 0
-816 -836 792 0
-816 -837 793 0
-816 -838 794 0
-816 -839 795 0
-816 -840 796 0
-816 -841 797 0
-816 -842 798 0
-817 -825 782 0
-817 -826 783 0
-817 -827 784 0
-817 -828 785 0
-817 -829 786 0
-817 -830 787 0
-817 -831 788 0
-817 -832 789 0
-817 -833 790 0
-817 -834 791 0
-817 -835 792 0
-817 -836 793 0
-817 -837 794 0
-817 -838 795 0
-817 -839 796 0
-817 -840 797 0
-817 -841 798 0
-817 -842 799 0
-818 -825 783 0
-818 -826 784 0
-818 -827 785 0
-818 -828 786 0
-818 -829 787 0
-818 -830 788 0
-818 -831 789 0
-818 -832 790 0
-818 -833 791 0
-818 -834 792 0
-818 -835 793 0
-818 -836 794 0
-818 -837 795 0
-818 -838 796 0
-818 -839 797 0
-818 -840 798 0
-818 -841 799 0
-818 -842 800 0
-819 -825 784 0
-819 -826 785 0
-819 -827 786 0
-819 -828 787 0
-819 -829 788 0
-819 -830 789 0
-819 -831 790 0
-819 -832 791 0
-819 -833 792 0
-819 -834 793 0
-819 -835 794 0
-819 -836 795 0
-819 -837 796 0
-819 -838 797 0
-819 -839 798 0
-819 -840 799 0
-819 -841 800 0
-819 -842 801 0
-820 -825 785 0
-820 -826 786 0
-820 -827 787 0
-820 -828 788 0
-820 -829 789 0
-820 -830 790 0
-820 -831 791 0
-820 -832 792 0
-820 -833 793 0
-820 -834 794 0
-820 -835 795 0
-820 -836 796 0
-820 -837 797 0
-820 -838 798 0
-820 -839 799 0
-820 -840 800 0
-820 -841 801 0
-820 -842 802 0
-821 -825 786 0
-821 -826 787 0
-821 -827 788 0
-821 -828 789 0
-821 -829 790 0
-821 -830 791 0
-821 -831 792 0
-821 -832 793 0
-821 -833 794 0
-821 -834 795 0
-821 -835 796 0
-821 -836 797 0
-821 -837 798 0
-821 -838 799 0
-821 -839 800 0
-821 -840 801 0
-821 -841 802 0
-821 -842 803 0
-822 -825 787 0
-822 -826 788 0
-822 -827 789 0
-822 -828 790 0
-822 -829 791 0
-822 -830 792 0
-822 -831 793 0
-822 -832 794 0
-822 -833 795 0
-822 -834 796 0
-822 -835 797 0
-822 -836 798 0
-822 -837 799 0
-822 -838 800 0
-822 -839 801 0
-822 -840 802 0
-822 -841 803 0
-822 -842 804 0
-823 -825 788 0
-823 -826 789 0
-823 -827 790 0
-823 -828 791 0
-823 -829 792 0
-823 -830 793 0
-823 -831 794 0
-823 -832 795 0
-823 -833 796 0
-823 -834 797 0
-823 -835 798 0
-823 -836 799 0
-823 -837 800 0
-823 -838 801 0
-823 -839 802 0
-823 -840 803 0
-823 -841 804 0
-823 -842 805 0
-824 -825 789 0
-824 -826 790 0
-824 -827 791 0
-824 -828 792 0
-824 -829 793 0
-824 -830 794 0
-824 -831 795 0
-824 -832 796 0
-824 -833 797 0
-824 -834 798 0
-824 -835 799 0
-824 -836 800 0
-824 -837 801 0
-824 -838 802 0
-824 -839 803 0
-824 -840 804 0
-824 -841 805 0
-824 -842 806 0
-852 825 0
-853 826 0
-854 827 0
-855 828 0
-856 829 0
-857 830 0
-858 831 0
-859 832 0
-860 833 0
-843 825 0
-844 826 0
-845 827 0
-846 828 0
-847 829 0
-848 830 0
-849 831 0
-850 832 0
-851 833 0
-843 -852 826 0
-843 -853 827 0
-843 -854 828 0
-843 -855 829 0
-843 -856 830 0
-843 -857 831 0
-843 -858 832 0
-843 -859 833 0
-843 -860 834 0
-844 -852 827 0
-844 -853 828 0
-844 -854 829 0
-844 -855 830 0
-844 -856 831 0
-844 -857 832 0
-844 -858 833 0
-844 -859 834 0
-844 -860 835 0
-845 -852 828 0
-845 -853 829 0
-845 -854 830 0
-845 -855 831 0
-845 -856 832 0
-845 -857 833 0
-845 -858 834 0
-845 -859 835 0
-845 -860 836 0
-846 -852 829 0
-846 -853 830 0
-846 -854 831 0
-846 -855 832 0
-846 -856 833 0
-846 -857 834 0
-846 -858 835 0
-846 -859 836 0
-846 -860 837 0
-847 -852 830 0
-847 -853 831 0
-847 -854 832 0
-847 -855 833 0
-847 -856 834 0
-847 -857 835 0
-847 -858 836 0
-847 -859 837 0
-847 -860 838 0
-848 -852 831 0
-848 -853 832 0
-848 -854 833 0
-848 -855 834 0
-848 -856 835 0
-848 -857 836 0
-848 -858 837 0
-848 -859 838 0
-848 -860 839 0
-849 -852 832 0
-849 -853 833 0
-849 -854 834 0
-849 -855 835 0
-849 -856 836 0
-849 -857 837 0
-849 -858 838 0
-849 -859 839 0
-849 -860 840 0
-850 -852 833 0
-850 -853 834 0
-850 -854 835 0
-850 -855 836 0
-850 -856 837 0
-850 -857 838 0
-850 -858 839 0
-850 -859 840 0
-850 -860 841 0
-851 -852 834 0
-851 -853 835 0
-851 -854 836 0
-851 -855 837 0
-851 -856 838 0
-851 -857 839 0
-851 -858 840 0
-851 -859 841 0
-851 -860 842 0
-866 852 0
-867 853 0
-868 854 0
-869 855 0
-861 852 0
-862 853 0
-863 854 0
-864 855 0
-865 856 0
-861 -866 853 0
-861 -867 854 0
-861 -868 855 0
-861 -869 856 0
-862 -866 854 0
-862 -867 855 0
-862 -868 856 0
-862 -869 857 0
-863 -866 855 0
-863 -867 856 0
-863 -868 857 0
-863 -869 858 0
-864 -866 856 0
-864 -867 857 0
-864 -868 858 0
-864 -869 859 0
-865 -866 857 0
-865 -867 858 0
-865 -868 859 0
-865 -869 860 0
-872 866 0
-873 867 0
-870 866 0
-871 867 0
-870 -872 867 0
-870 -873 868 0
-871 -872 868 0
-871 -873 869 0
582 872 0
581 872 0
581 582 873 0
578 870 0
577 870 0
577 578 871 0
-877 861 0
-878 862 0
-874 861 0
-875 862 0
-876 863 0
-874 -877 862 0
-874 -878 863 0
-875 -877 863 0
-875 -878 864 0
-876 -877 864 0
-876 -878 865 0
574 877 0
573 877 0
573 574 878 0
570 874 0
-879 874 0
-880 875 0
-879 570 875 0
-880 570 876 0
569 879 0
566 879 0
566 569 880 0
-886 843 0
-887 844 0
-888 845 0
-889 846 0
-881 843 0
-882 844 0
-883 845 0
-884 846 0
-885 847 0
-881 -886 844 0
-881 -887 845 0
-881 -888 846 0
-881 -889 847 0
-882 -886 845 0
-882 -887 846 0
-882 -888 847 0
-882 -889 848 0
-883 -886 846 0
-883 -887 847 0
-883 -888 848 0
-883 -889 849 0
-884 -886 847 0
-884 -887 848 0
-884 -888 849 0
-884 -889 850 0
-885 -886 848 0
-885 -887 849 0
-885 -888 850 0
-885 -889 851 0
-892 886 0
-893 887 0
-890 886 0
-891 887 0
-890 -892 887 0
-890 -893 888 0
-891 -892 888 0
-891 -893 889 0
565 892 0
562 892 0
562 565 893 0
561 890 0
558 890 0
558 561 891 0
-897 881 0
-898 882 0
-894 881 0
-895 882 0
-896 883 0
-894 -897 882 0
-894 -898 883 0
-895 -897 883 0
-895 -898 884 0
-896 -897 884 0
-896 -898 885 0
557 897 0
554 897 0
554 557 898 0
553 894 0
-899 894 0
-900 895 0
-899 553 895 0
-900 553 896 0
550 899 0
549 899 0
549 550 900 0
-910 807 0
-911 808 0
-912 809 0
-913 810 0
-914 811 0
-915 812 0
-916 813 0
-917 814 0
-918 815 0
-901 807 0
-902 808 0
-903 809 0
-904 810 0
-905 811 0
-906 812 0
-907 813 0
-908 814 0
-909 815 0
-901 -910 808 0
-901 -911 809 0
-901 -912 810 0
-901 -913 811 0
-901 -914 812 0
-901 -915 813 0
-901 -916 814 0
-901 -917 815 0
-901 -918 816 0
-902 -910 809 0
-902 -911 810 0
-902 -912 811 0
-902 -913 812 0
-902 -914 813 0
-902 -915 814 0
-902 -916 815 0
-902 -917 816 0
-902 -918 817 0
-903 -910 810 0
-903 -911 811 0
-903 -912 812 0
-903 -913 813 0
-903 -914 814 0
-903 -915 815 0
-903 -916 816 0
-903 -917 817 0
-903 -918 818 0
-904 -910 811 0
-904 -911 812 0
-904 -912 813 0
-904 -913 814 0
-904 -914 815 0
-904 -915 816 0
-904 -916 817 0
-904 -917 818 0
-904 -918 819 0
-905 -910 812 0
-905 -911 813 0
-905 -912 814 0
-905 -913 815 0
-905 -914 816 0
-905 -915 817 0
-905 -916 818 0
-905 -917 819 0
-905 -918 820 0
-906 -910 813 0
-906 -911 814 0
-906 -912 815 0
-906 -913 816 0
-906 -914 817 0
-906 -915 818 0
-906 -916 819 0
-906 -917 820 0
-906 -918 821 0
-907 -910 814 0
-907 -911 815 0
-907 -912 816 0
-907 -913 817 0
-907 -914 818 0
-907 -915 819 0
-907 -916 820 0
-907 -917 821 0
-907 -918 822 0
-908 -910 815 0
-908 -911 816 0
-908 -912 817 0
-908 -913 818 0
-908 -914 819 0
-908 -915 820 0
-908 -916 821 0
-908 -917 822 0
-908 -918 823 0
-909 -910 816 0
-909 -911 817 0
-909 -912 818 0
-909 -913 819 0
-909 -914 820 0
-909 -915 821 0
-909 -916 822 0
-909 -917 823 0
-909 -918 824 0
-924 910 0
-925 911 0
-926 912 0
-927 913 0
-919 910 0
-920 911 0
-921 912 0
-922 913 0
-923 914 0
-919 -924 911 0
-919 -925 912 0
-919 -926 913 0
-919 -927 914 0
-920 -924 912 0
-920 -925 913 0
-920 -926 914 0
-920 -927 915 0
-921 -924 913 0
-921 -925 914 0
-921 -926 915 0
-921 -927 916 0
-922 -924 914 0
-922 -925 915 0
-922 -926 916 0
-922 -927 917 0
-923 -924 915 0
-923 -925 916 0
-923 -926 917 0
-923 -927 918 0
-930 924 0
-931 925 0
-928 924 0
-929 925 0
-928 -930 925 0
-928 -931 926 0
-929 -930 926 0
-929 -931 927 0
-580 930 0
-579 930 0
-579 -580 931 0
-576 928 0
-575 928 0
-575 -576 929 0
-935 919 0
-936 920 0
-932 919 0
-933 920 0
-934 921 0
-932 -935 920 0
-932 -936 921 0
-933 -935 921 0
-933 -936 922 0
-934 -935 922 0
-934 -936 923 0
-572 935 0
-571 935 0
-571 -572 936 0
-568 932 0
-937 932 0
-938 933 0
-937 -568 933 0
-938 -568 934 0
-567 937 0
-564 937 0
-564 -567 938 0
-944 901 0
-945 902 0
-946 903 0
-947 904 0
-939 901 0
-940 902 0
-941 903 0
-942 904 0
-943 905 0
-939 -944 902 0
-939 -945 903 0
-939 -946 904 0
-939 -947 905 0
-940 -944 903 0
-940 -945 904 0
-940 -946 905 0
-940 -947 906 0
-941 -944 904 0
-941 -945 905 0
-941 -946 906 0
-941 -947 907 0
-942 -944 905 0
-942 -945 906 0
-942 -946 907 0
-942 -947 908 0
-943 -944 906 0
-943 -945 907 0
-943 -946 908 0
-943 -947 909 0
-950 944 0
-951 945 0
-948 944 0
-949 945 0
-948 -950 945 0
-948 -951 946 0
-949 -950 946 0
-949 -951 947 0
-563 950 0
-560 950 0
-560 -563 951 0
-559 948 0
-556 948 0
-556 -559 949 0
-955 939 0
-956 940 0
-952 939 0
-953 940 0
-954 941 0
-952 -955 940 0
-952 -956 941 0
-953 -955 941 0
-953 -956 942 0
-954 -955 942 0
-954 -956 943 0
-555 955 0
-552 955 0
-552 -555 956 0
-551 952 0
-957 952 0
-958 953 0
-957 -551 953 0
-958 -551 954 0
-548 957 0
-547 957 0
-547 -548 958 0
-788 0
-959 1 0
-959 7 0
959 -1 -7 0
-960 10 0
-960 16 0
960 -10 -16 0
-961 1 0
-961 16 0
961 -1 -16 0
-962 10 0
-962 7 0
962 -10 -7 0
-963 2 0
-963 8 0
963 -2 -8 0
-964 11 0
-964 17 0
964 -11 -17 0
-965 2 0
-965 17 0
965 -2 -17 0
-966 11 0
-966 8 0
966 -11 -8 0
-967 3 0
-967 9 0
967 -3 -9 0
-968 12 0
-968 18 0
968 -12 -18 0
-969 3 0
-969 18 0
969 -3 -18 0
-970 12 0
-970 9 0
970 -12 -9 0
-971 4 0
-971 1 0
971 -4 -1 0
-972 13 0
-972 10 0
972 -13 -10 0
-973 4 0
-973 10 0
973 -4 -10 0
-974 13 0
-974 1 0
974 -13 -1 0
-975 5 0
-975 2 0
975 -5 -2 0
-976 14 0
-976 11 0
976 -14 -11 0
-977 5 0
-977 11 0
977 -5 -11 0
-978 14 0
-978 2 0
978 -14 -2 0
-979 6 0
-979 3 0
979 -6 -3 0
-980 15 0
-980 12 0
980 -15 -12 0
-981 6 0
-981 12 0
981 -6 -12 0
-982 15 0
-982 3 0
982 -15 -3 0
-983 7 0
-983 4 0
983 -7 -4 0
-984 16 0
-984 13 0
984 -16 -13 0
-985 7 0
-985 13 0
985 -7 -13 0
-986 16 0
-986 4 0
986 -16 -4 0
-987 8 0
-987 5 0
987 -8 -5 0
-988 17 0
-988 14 0
988 -17 -14 0
-989 8 0
-989 14 0
989 -8 -14 0
-990 17 0
-990 5 0
990 -17 -5 0
-991 9 0
-991 6 0
991 -9 -6 0
-992 18 0
-992 15 0
992 -18 -15 0
-993 9 0
-993 15 0
993 -9 -15 0
-994 18 0
-994 6 0
994 -18 -6 0
-1049 995 0
-1050 996 0
-1051 997 0
-1052 998 0
-1053 999 0
-1054 1000 0
-1055 1001 0
-1056 1002 0
-1057 1003 0
-1058 1004 0
-1059 1005 0
-1060 1006 0
-1061 1007 0
-1062 1008 0
-1063 1009 0
-1064 1010 0
-1065 1011 0
-1066 1012 0
-1031 995 0
-1032 996 0
-1033 997 0
-1034 998 0
-1035 999 0
-1036 1000 0
-1037 1001 0
-1038 1002 0
-1039 1003 0
-1040 1004 0
-1041 1005 0
-1042 1006 0
-1043 1007 0
-1044 1008 0
-1045 1009 0
-1046 1010 0
-1047 1011 0
-1048 1012 0
-1031 -1049 996 0
-1031 -1050 997 0
-1031 -1051 998 0
-1031 -1052 999 0
-1031 -1053 1000 0
-1031 -1054 1001 0
-1031 -1055 1002 0
-1031 -1056 1003 0
-1031 -1057 1004 0
-1031 -1058 1005 0
-1031 -1059 1006 0
-1031 -1060 1007 0
-1031 -1061 1008 0
-1031 -1062 1009 0
-1031 -1063 1010 0
-1031 -1064 1011 0
-1031 -1065 1012 0
-1031 -1066 1013 0
-1032 -1049 997 0
-1032 -1050 998 0
-1032 -1051 999 0
-1032 -1052 1000 0
-1032 -1053 1001 0
-1032 -1054 1002 0
-1032 -1055 1003 0
-1032 -1056 1004 0
-1032 -1057 1005 0
-1032 -1058 1006 0
-1032 -1059 1007 0
-1032 -1060 1008 0
-1032 -1061 1009 0
-1032 -1062 1010 0
-1032 -1063 1011 0
-1032 -1064 1012 0
-1032 -1065 1013 0
-1032 -1066 1014 0
-1033 -1049 998 0
-1033 -1050 999 0
-1033 -1051 1000 0
-1033 -1052 1001 0
-1033 -1053 1002 0
-1033 -1054 1003 0
-1033 -1055 1004 0
-1033 -1056 1005 0
-1033 -1057 1006 0
-1033 -1058 1007 0
-1033 -1059 1008 0
-1033 -1060 1009 0
-1033 -1061 1010 0
-1033 -1062 1011 0
-1033 -1063 1012 0
-1033 -1064 1013 0
-1033 -1065 1014 0
-1033 -1066 1015 0
-1034 -1049 999 0
-1034 -1050 1000 0
-1034 -1051 1001 0
-1034 -1052 1002 0
-1034 -1053 1003 0
-1034 -1054 1004 0
-1034 -1055 1005 0
-1034 -1056 1006 0
-1034 -1057 1007 0
-1034 -1058 1008 0
-1034 -1059 1009 0
-1034 -1060 1010 0
-1034 -1061 1011 0
-1034 -1062 1012 0
-1034 -1063 1013 0
-1034 -1064 1014 0
-1034 -1065 1015 0
-1034 -1066 1016 0
-1035 -1049 1000 0
-1035 -1050 1001 0
-1035 -1051 1002 0
-1035 -1052 1003 0
-1035 -1053 1004 0
-1035 -1054 1005 0
-1035 -1055 1006 0
-1035 -1056 1007 0
-1035 -1057 1008 0
-1035 -1058 1009 0
-1035 -1059 1010 0
-1035 -1060 1011 0
-1035 -1061 1012 0
-1035 -1062 1013 0
-1035 -1063 1014 0
-1035 -1064 1015 0
-1035 -1065 1016 0
-1035 -1066 1017 0
-1036 -1049 1001 0
-1036 -1050 1002 0
-1036 -1051 1003 0
-1036 -1052 1004 0
-1036 -1053 1005 0
-1036 -1054 1006 0
-1036 -1055 1007 0
-1036 -1056 1008 0
-1036 -1057 1009 0
-1036 -1058 1010 0
-1036 -1059 1011 0
-1036 -1060 1012 0
-1036 -1061 1013 0
-1036 -1062 1014 0
-1036 -1063 1015 0
-1036 -1064 1016 0
-1036 -1065 1017 0
-1036 -1066 1018 0
-1037 -1049 1002 0
-1037 -1050 1003 0
-1037 -1051 1004 0
-1037 -1052 1005 0
-1037 -1053 1006 0
-1037 -1054 1007 0
-1037 -1055 1008 0
-1037 -1056 1009 0
-1037 -1057 1010 0
-1037 -1058 1011 0
-1037 -1059 1012 0
-1037 -1060 1013 0
-1037 -1061 1014 0
-1037 -1062 1015 0
-1037 -1063 1016 0
-1037 -1064 1017 0
-1037 -1065 1018 0
-1037 -1066 1019 0
-1038 -1049 1003 0
-1038 -1050 1004 0
-1038 -1051 1005 0
-1038 -1052 1006 0
-1038 -1053 1007 0
-1038 -1054 1008 0
-1038 -1055 1009 0
-1038 -1056 1010 0
-1038 -1057 1011 0
-1038 -1058 1012 0
-1038 -1059 1013 0
-1038 -1060 1014 0
-1038 -1061 1015 0
-1038 -1062 1016 0
-1038 -1063 1017 0
-1038 -1064 1018 0
-1038 -1065 1019 0
-1038 -1066 1020 0
-1039 -1049 1004 0
-1039 -1050 1005 0
-1039 -1051 1006 0
-1039 -1052 1007 0
-1039 -1053 1008 0
-1039 -1054 1009 0
-1039 -1055 1010 0
-1039 -1056 1011 0
-1039 -1057 1012 0
-1039 -1058 1013 0
-1039 -1059 1014 0
-1039 -1060 1015 0
-1039 -1061 1016 0
-1039 -1062 1017 0
-1039 -1063 1018 0
-1039 -1064 1019 0
-1039 -1065 1020 0
-1039 -1066 1021 0
-1040 -1049 1005 0
-1040 -1050 1006 0
-1040 -1051 1007 0
-1040 -1052 1008 0
-1040 -1053 1009 0
-1040 -1054 1010 0
-1040 -1055 1011 0
-1040 -1056 1012 0
-1040 -1057 1013 0
-1040 -1058 1014 0
-1040 -1059 1015 0
-1040 -1060 1016 0
-1040 -1061 1017 0
-1040 -1062 1018 0
-1040 -1063 1019 0
-1040 -1064 1020 0
-1040 -1065 1021 0
-1040 -1066 1022 0
-1041 -1049 1006 0
-1041 -1050 1007 0
-1041 -1051 1008 0
-1041 -1052 1009 0
-1041 -1053 1010 0
-1041 -1054 1011 0
-1041 -1055 1012 0
-1041 -1056 1013 0
-1041 -1057 1014 0
-1041 -1058 1015 0
-1041 -1059 1016 0
-1041 -1060 1017 0
-1041 -1061 1018 0
-1041 -1062 1019 0
-1041 -1063 1020 0
-1041 -1064 1021 0
-1041 -1065 1022 0
-1041 -1066 1023 0
-1042 -1049 1007 0
-1042 -1050 1008 0
-1042 -1051 1009 0
-1042 -1052 1010 0
-1042 -1053 1011 0
-1042 -1054 1012 0
-1042 -1055 1013 0
-1042 -1056 1014 0
-1042 -1057 1015 0
-1042 -1058 1016 0
-1042 -1059 1017 0
-1042 -1060 1018 0
-1042 -1061 1019 0
-1042 -1062 1020 0
-1042 -1063 1021 0
-1042 -1064 1022 0
-1042 -1065 1023 0
-1042 -1066 1024 0
-1043 -1049 1008 0
-1043 -1050 1009 0
-1043 -1051 1010 0
-1043 -1052 1011 0
-1043 -1053 1012 0
-1043 -1054 1013 0
-1043 -1055 1014 0
-1043 -1056 1015 0
-1043 -1057 1016 0
-1043 -1058 1017 0
-1043 -1059 1018 0
-1043 -1060 1019 0
-1043 -1061 1020 0
-1043 -1062 1021 0
-1043 -1063 1022 0
-1043 -1064 1023 0
-1043 -1065 1024 0
-1043 -1066 1025 0
-1044 -1049 1009 0
-1044 -1050 1010 0
-1044 -1051 1011 0
-1044 -1052 1012 0
-1044 -1053 1013 0
-1044 -1054 1014 0
-1044 -1055 1015 0
-1044 -1056 1016 0
-1044 -1057 1017 0
-1044 -1058 1018 0
-1044 -1059 1019 0
-1044 -1060 1020 0
-1044 -1061 1021 0
-1044 -1062 1022 0
-1044 -1063 1023 0
-1044 -1064 1024 0
-1044 -1065 1025 0
-1044 -1066 1026 0
-1045 -1049 1010 0
-1045 -1050 1011 0
-1045 -1051 1012 0
-1045 -1052 1013 0
-1045 -1053 1014 0
-1045 -1054 1015 0
-1045 -1055 1016 0
-1045 -1056 1017 0
-1045 -1057 1018 0
-1045 -1058 1019 0
-1045 -1059 1020 0
-1045 -1060 1021 0
-1045 -1061 1022 0
-1045 -1062 1023 0
-1045 -1063 1024 0
-1045 -1064 1025 0
-1045 -1065 1026 0
-1045 -1066 1027 0
-1046 -1049 1011 0
-1046 -1050 1012 0
-1046 -1051 1013 0
-1046 -1052 1014 0
-1046 -1053 1015 0
-1046 -1054 1016 0
-1046 -1055 1017 0
-1046 -1056 1018 0
-1046 -1057 1019 0
-1046 -1058 1020 0
-1046 -1059 1021 0
-1046 -1060 1022 0
-1046 -1061 1023 0
-1046 -1062 1024 0
-1046 -1063 1025 0
-1046 -1064 1026 0
-1046 -1065 1027 0
-1046 -1066 1028 0
-1047 -1049 1012 0
-1047 -1050 1013 0
-1047 -1051 1014 0
-1047 -1052 1015 0
-1047 -1053 1016 0
-1047 -1054 1017 0
-1047 -1055 1018 0
-1047 -1056 1019 0
-1047 -1057 1020 0
-1047 -1058 1021 0
-1047 -1059 1022 0
-1047 -1060 1023 0
-1047 -1061 1024 0
-1047 -1062 1025 0
-1047 -1063 1026 0
-1047 -1064 1027 0
-1047 -1065 1028 0
-1047 -1066 1029 0
-1048 -1049 1013 0
-1048 -1050 1014 0
-1048 -1051 1015 0
-1048 -1052 1016 0
-1048 -1053 1017 0
-1048 -1054 1018 0
-1048 -1055 1019 0
-1048 -1056 1020 0
-1048 -1057 1021 0
-1048 -1058 1022 0
-1048 -1059 1023 0
-1048 -1060 1024 0
-1048 -1061 1025 0
-1048 -1062 1026 0
-1048 -1063 1027 0
-1048 -1064 1028 0
-1048 -1065 1029 0
-1048 -1066 1030 0
-1076 1049 0
-1077 1050 0
-1078 1051 0
-1079 1052 0
-1080 1053 0
-1081 1054 0
-1082 1055 0
-1083 1056 0
-1084 1057 0
-1067 1049 0
-1068 1050 0
-1069 1051 0
-1070 1052 0
-1071 1053 0
-1072 1054 0
-1073 1055 0
-1074 1056 0
-1075 1057 0
-1067 -1076 1050 0
-1067 -1077 1051 0
-1067 -1078 1052 0
-1067 -1079 1053 0
-1067 -1080 1054 0
-1067 -1081 1055 0
-1067 -1082 1056 0
-1067 -1083 1057 0
-1067 -1084 1058 0
-1068 -1076 1051 0
-1068 -1077 1052 0
-1068 -1078 1053 0
-1068 -1079 1054 0
-1068 -1080 1055 0
-1068 -1081 1056 0
-1068 -1082 1057 0
-1068 -1083 1058 0
-1068 -1084 1059 0
-1069 -1076 1052 0
-1069 -1077 1053 0
-1069 -1078 1054 0
-1069 -1079 1055 0
-1069 -1080 1056 0
-1069 -1081 1057 0
-1069 -1082 1058 0
-1069 -1083 1059 0
-1069 -1084 1060 0
-1070 -1076 1053 0
-1070 -1077 1054 0
-1070 -1078 1055 0
-1070 -1079 1056 0
-1070 -1080 1057 0
-1070 -1081 1058 0
-1070 -1082 1059 0
-1070 -1083 1060 0
-1070 -1084 1061 0
-1071 -1076 1054 0
-1071 -1077 1055 0
-1071 -1078 1056 0
-1071 -1079 1057 0
-1071 -1080 1058 0
-1071 -1081 1059 0
-1071 -1082 1060 0
-1071 -1083 1061 0
-1071 -1084 1062 0
-1072 -1076 1055 0
-1072 -1077 1056 0
-1072 -1078 1057 0
-1072 -1079 1058 0
-1072 -1080 1059 0
-1072 -1081 1060 0
-1072 -1082 1061 0
-1072 -1083 1062 0
-1072 -1084 1063 0
-1073 -1076 1056 0
-1073 -1077 1057 0
-1073 -1078 1058 0
-1073 -1079 1059 0
-1073 -1080 1060 0
-1073 -1081 1061 0
-1073 -1082 1062 0
-1073 -1083 1063 0
-1073 -1084 1064 0
-1074 -1076 1057 0
-1074 -1077 1058 0
-1074 -1078 1059 0
-1074 -1079 1060 0
-1074 -1080 1061 0
-1074 -1081 1062 0
-1074 -1082 1063 0
-1074 -1083 1064 0
-1074 -1084 1065 0
-1075 -1076 1058 0
-1075 -1077 1059 0
-1075 -1078 1060 0
-1075 -1079 1061 0
-1075 -1080 1062 0
-1075 -1081 1063 0
-1075 -1082 1064 0
-1075 -1083 1065 0
-1075 -1084 1066 0
-1090 1076 0
-1091 1077 0
-1092 1078 0
-1093 1079 0
-1085 1076 0
-1086 1077 0
-1087 1078 0
-1088 1079 0
-1089 1080 0
-1085 -1090 1077 0
-1085 -1091 1078 0
-1085 -1092 1079 0
-1085 -1093 1080 0
-1086 -1090 1078 0
-1086 -1091 1079 0
-1086 -1092 1080 0
-1086 -1093 1081 0
-1087 -1090 1079 0
-1087 -1091 1080 0
-1087 -1092 1081 0
-1087 -1093 1082 0
-1088 -1090 1080 0
-1088 -1091 1081 0
-1088 -1092 1082 0
-1088 -1093 1083 0
-1089 -1090 1081 0
-1089 -1091 1082 0
-1089 -1092 1083 0
-1089 -1093 1084 0
-1096 1090 0
-1097 1091 0
-1094 1090 0
-1095 1091 0
-1094 -1096 1091 0
-1094 -1097 1092 0
-1095 -1096 1092 0
-1095 -1097 1093 0
-994 1096 0
-993 1096 0
-993 -994 1097 0
-990 1094 0
-989 1094 0
-989 -990 1095 0
-1101 1085 0
-1102 1086 0
-1098 1085 0
-1099 1086 0
-1100 1087 0
-1098 -1101 1086 0
-1098 -1102 1087 0
-1099 -1101 1087 0
-1099 -1102 1088 0
-1100 -1101 1088 0
-1100 -1102 1089 0
-986 1101 0
-985 1101 0
-985 -986 1102 0
-982 1098 0
-1103 1098 0
-1104 1099 0
-1103 -982 1099 0
-1104 -982 1100 0
-981 1103 0
-978 1103 0
-978 -981 1104 0
-1110 1067 0
-1111 1068 0
-1112 1069 0
-1113 1070 0
-1105 1067 0
-1106 1068 0
-1107 1069 0
-1108 1070 0
-1109 1071 0
-1105 -1110 1068 0
-1105 -1111 1069 0
-1105 -1112 1070 0
-1105 -1113 1071 0
-1106 -1110 1069 0
-1106 -1111 1070 0
-1106 -1112 1071 0
-1106 -1113 1072 0
-1107 -1110 1070 0
-1107 -1111 1071 0
-1107 -1112 1072 0
-1107 -1113 1073 0
-1108 -1110 1071 0
-1108 -1111 1072 0
-1108 -1112 1073 0
-1108 -1113 1074 0
-1109 -1110 1072 0
-1109 -1111 1073 0
-1109 -1112 1074 0
-1109 -1113 1075 0
-1116 1110 0
-1117 1111 0
-1114 1110 0
-1115 1111 0
-1114 -1116 1111 0
-1114 -1117 1112 0
-1115 -1116 1112 0
-1115 -1117 1113 0
-977 1116 0
-974 1116 0
-974 -977 1117 0
-973 1114 0
-970 1114 0
-970 -973 1115 0
-1121 1105 0
-1122 1106 0
-1118 1105 0
-1119 1106 0
-1120 1107 0
-1118 -1121 1106 0
-1118 -1122 1107 0
-1119 -1121 1107 0
-1119 -1122 1108 0
-1120 -1121 1108 0
-1120 -1122 1109 0
-969 1121 0
-966 1121 0
-966 -969 1122 0
-965 1118 0
-1123 1118 0
-1124 1119 0
-1123 -965 1119 0
-1124 -965 1120 0
-962 1123 0
-961 1123 0
-961 -962 1124 0
-1134 1031 0
-1135 1032 0
-1136 1033 0
-1137 1034 0
-1138 1035 0
-1139 1036 0
-1140 1037 0
-1141 1038 0
-1142 1039 0
-1125 1031 0
-1126 1032 0
-1127 1033 0
-1128 1034 0
-1129 1035 0
-1130 1036 0
-1131 1037 0
-1132 1038 0
-1133 1039 0
-1125 -1134 1032 0
-1125 -1135 1033 0
-1125 -1136 1034 0
-1125 -1137 1035 0
-1125 -1138 1036 0
-1125 -1139 1037 0
-1125 -1140 1038 0
-1125 -1141 1039 0
-1125 -1142 1040 0
-1126 -1134 1033 0
-1126 -1135 1034 0
-1126 -1136 1035 0
-1126 -1137 1036 0
-1126 -1138 1037 0
-1126 -1139 1038 0
-1126 -1140 1039 0
-1126 -1141 1040 0
-1126 -1142 1041 0
-1127 -1134 1034 0
-1127 -1135 1035 0
-1127 -1136 1036 0
-1127 -1137 1037 0
-1127 -1138 1038 0
-1127 -1139 1039 0
-1127 -1140 1040 0
-1127 -1141 1041 0
-1127 -1142 1042 0
-1128 -1134 1035 0
-1128 -1135 1036 0
-1128 -1136 1037 0
-1128 -1137 1038 0
-1128 -1138 1039 0
-1128 -1139 1040 0
-1128 -1140 1041 0
-1128 -1141 1042 0
-1128 -1142 1043 0
-1129 -1134 1036 0
-1129 -1135 1037 0
-1129 -1136 1038 0
-1129 -1137 1039 0
-1129 -1138 1040 0
-1129 -1139 1041 0
-1129 -1140 1042 0
-1129 -1141 1043 0
-1129 -1142 1044 0
-1130 -1134 1037 0
-1130 -1135 1038 0
-1130 -1136 1039 0
-1130 -1137 1040 0
-1130 -1138 1041 0
-1130 -1139 1042 0
-1130 -1140 1043 0
-1130 -1141 1044 0
-1130 -1142 1045 0
-1131 -1134 1038 0
-1131 -1135 1039 0
-1131 -1136 1040 0
-1131 -1137 1041 0
-1131 -1138 1042 0
-1131 -1139 1043 0
-1131 -1140 1044 0
-1131 -1141 1045 0
-1131 -1142 1046 0
-1132 -1134 1039 0
-1132 -1135 1040 0
-1132 -1136 1041 0
-1132 -1137 1042 0
-1132 -1138 1043 0
-1132 -1139 1044 0
-1132 -1140 1045 0
-1132 -1141 1046 0
-1132 -1142 1047 0
-1133 -1134 1040 0
-1133 -1135 1041 0
-1133 -1136 1042 0
-1133 -1137 1043 0
-1133 -1138 1044 0
-1133 -1139 1045 0
-1133 -1140 1046 0
-1133 -1141 1047 0
-1133 -1142 1048 0
-1148 1134 0
-1149 1135 0
-1150 1136 0
-1151 1137 0
-1143 1134 0
-1144 1135 0
-1145 1136 0
-1146 1137 0
-1147 1138 0
-1143 -1148 1135 0
-1143 -1149 1136 0
-1143 -1150 1137 0
-1143 -1151 1138 0
-1144 -1148 1136 0
-1144 -1149 1137 0
-1144 -1150 1138 0
-1144 -1151 1139 0
-1145 -1148 1137 0
-1145 -1149 1138 0
-1145 -1150 1139 0
-1145 -1151 1140 0
-1146 -1148 1138 0
-1146 -1149 1139 0
-1146 -1150 1140 0
-1146 -1151 1141 0
-1147 -1148 1139 0
-1147 -1149 1140 0
-1147 -1150 1141 0
-1147 -1151 1142 0
-1154 1148 0
-1155 1149 0
-1152 1148 0
-1153 1149 0
-1152 -1154 1149 0
-1152 -1155 1150 0
-1153 -1154 1150 0
-1153 -1155 1151 0
992 1154 0
991 1154 0
991 992 1155 0
988 1152 0
987 1152 0
987 988 1153 0
-1159 1143 0
-1160 1144 0
-1156 1143 0
-1157 1144 0
-1158 1145 0
-1156 -1159 1144 0
-1156 -1160 1145 0
-1157 -1159 1145 0
-1157 -1160 1146 0
-1158 -1159 1146 0
-1158 -1160 1147 0
984 1159 0
983 1159 0
983 984 1160 0
980 1156 0
-1161 1156 0
-1162 1157 0
-1161 980 1157 0
-1162 980 1158 0
979 1161 0
976 1161 0
976 979 1162 0
-1168 1125 0
-1169 1126 0
-1170 1127 0
-1171 1128 0
-1163 1125 0
-1164 1126 0
-1165 1127 0
-1166 1128 0
-1167 1129 0
-1163 -1168 1126 0
-1163 -1169 1127 0
-1163 -1170 1128 0
-1163 -1171 1129 0
-1164 -1168 1127 0
-1164 -1169 1128 0
-1164 -1170 1129 0
-1164 -1171 1130 0
-1165 -1168 1128 0
-1165 -1169 1129 0
-1165 -1170 1130 0
-1165 -1171 1131 0
-1166 -1168 1129 0
-1166 -1169 1130 0
-1166 -1170 1131 0
-1166 -1171 1132 0
-1167 -1168 1130 0
-1167 -1169 1131 0
-1167 -1170 1132 0
-1167 -1171 1133 0
-1174 1168 0
-1175 1169 0
-1172 1168 0
-1173 1169 0
-1172 -1174 1169 0
-1172 -1175 1170 0
-1173 -1174 1170 0
-1173 -1175 1171 0
975 1174 0
972 1174 0
972 975 1175 0
971 1172 0
968 1172 0
968 971 1173 0
-1179 1163 0
-1180 1164 0
-1176 1163 0
-1177 1164 0
-1178 1165 0
-1176 -1179 1164 0
-1176 -1180 1165 0
-1177 -1179 1165 0
-1177 -1180 1166 0
-1178 -1179 1166 0
-1178 -1180 1167 0
967 1179 0
964 1179 0
964 967 1180 0
963 1176 0
-1181 1176 0
-1182 1177 0
-1181 963 1177 0
-1182 963 1178 0
960 1181 0
959 1181 0
959 960 1182 0
-1014 0
-1237 1183 0
-1238 1184 0
-1239 1185 0
-1240 1186 0
-1241 1187 0
-1242 1188 0
-1243 1189 0
-1244 1190 0
-1245 1191 0
-1246 1192 0
-1247 1193 0
-1248 1194 0
-1249 1195 0
-1250 1196 0
-1251 1197 0
-1252 1198 0
-1253 1199 0
-1254 1200 0
-1219 1183 0
-1220 1184 0
-1221 1185 0
-1222 1186 0
-1223 1187 0
-1224 1188 0
-1225 1189 0
-1226 1190 0
-1227 1191 0
-1228 1192 0
-1229 1193 0
-1230 1194 0
-1231 1195 0
-1232 1196 0
-1233 1197 0
-1234 1198 0
-1235 1199 0
-1236 1200 0
-1219 -1237 1184 0
-1219 -1238 1185 0
-1219 -1239 1186 0
-1219 -1240 1187 0
-1219 -1241 1188 0
-1219 -1242 1189 0
-1219 -1243 1190 0
-1219 -1244 1191 0
-1219 -1245 1192 0
-1219 -1246 1193 0
-1219 -1247 1194 0
-1219 -1248 1195 0
-1219 -1249 1196 0
-1219 -1250 1197 0
-1219 -1251 1198 0
-1219 -1252 1199 0
-1219 -1253 1200 0
-1219 -1254 1201 0
-1220 -1237 1185 0
-1220 -1238 1186 0
-1220 -1239 1187 0
-1220 -1240 1188 0
-1220 -1241 1189 0
-1220 -1242 1190 0
-1220 -1243 1191 0
-1220 -1244 1192 0
-1220 -1245 1193 0
-1220 -1246 1194 0
-1220 -1247 1195 0
-1220 -1248 1196 0
-1220 -1249 1197 0
-1220 -1250 1198 0
-1220 -1251 1199 0
-1220 -1252 1200 0
-1220 -1253 1201 0
-1220 -1254 1202 0
-1221 -1237 1186 0
-1221 -1238 1187 0
-1221 -1239 1188 0
-1221 -1240 1189 0
-1221 -1241 1190 0
-1221 -1242 1191 0
-1221 -1243 1192 0
-1221 -1244 1193 0
-1221 -1245 1194 0
-1221 -1246 1195 0
-1221 -1247 1196 0
-1221 -1248 1197 0
-1221 -1249 1198 0
-1221 -1250 1199 0
-1221 -1251 1200 0
-1221 -1252 1201 0
-1221 -1253 1202 0
-1221 -1254 1203 0
-1222 -1237 1187 0
-1222 -1238 1188 0
-1222 -1239 1189 0
-1222 -1240 1190 0
-1222 -1241 1191 0
-1222 -1242 1192 0
-1222 -1243 1193 0
-1222 -1244 1194 0
-1222 -1245 1195 0
-1222 -1246 1196 0
-1222 -1247 1197 0
-1222 -1248 1198 0
-1222 -1249 1199 0
-1222 -1250 1200 0
-1222 -1251 1201 0
-1222 -1252 1202 0
-1222 -1253 1203 0
-1222 -1254 1204 0
-1223 -1237 1188 0
-1223 -1238 1189 0
-1223 -1239 1190 0
-1223 -1240 1191 0
-1223 -1241 1192 0
-1223 -1242 1193 0
-1223 -1243 1194 0
-1223 -1244 1195 0
-1223 -1245 1196 0
-1223 -1246 1197 0
-1223 -1247 1198 0
-1223 -1248 1199 0
-1223 -1249 1200 0
-1223 -1250 1201 0
-1223 -1251 1202 0
-1223 -1252 1203 0
-1223 -1253 1204 0
-1223 -1254 1205 0
-1224 -1237 1189 0
-1224 -1238 1190 0
-1224 -1239 1191 0
-1224 -1240 1192 0
-1224 -1241 1193 0
-1224 -1242 1194 0
-1224 -1243 1195 0
-1224 -1244 1196 0
-1224 -1245 1197 0
-1224 -1246 1198 0
-1224 -1247 1199 0
-1224 -1248 1200 0
-1224 -1249 1201 0
-1224 -1250 1202 0
-1224 -1251 1203 0
-1224 -1252 1204 0
-1224 -1253 1205 0
-1224 -1254 1206 0
-1225 -1237 1190 0
-1225 -1238 1191 0
-1225 -1239 1192 0
-1225 -1240 1193 0
-1225 -1241 1194 0
-1225 -1242 1195 0
-1225 -1243 1196 0
-1225 -1244 1197 0
-1225 -1245 1198 0
-1225 -1246 1199 0
-1225 -1247 1200 0
-1225 -1248 1201 0
-1225 -1249 1202 0
-1225 -1250 1203 0
-1225 -1251 1204 0
-1225 -1252 1205 0
-1225 -1253 1206 0
-1225 -1254 1207 0
-1226 -1237 1191 0
-1226 -1238 1192 0
-1226 -1239 1193 0
-1226 -1240 1194 0
-1226 -1241 1195 0
-1226 -1242 1196 0
-1226 -1243 1197 0
-1226 -1244 1198 0
-1226 -1245 1199 0
-1226 -1246 1200 0
-1226 -1247 1201 0
-1226 -1248 1202 0
-1226 -1249 1203 0
-1226 -1250 1204 0
-1226 -1251 1205 0
-1226 -1252 1206 0
-1226 -1253 1207 0
-1226 -1254 1208 0
-1227 -1237 1192 0
-1227 -1238 1193 0
-1227 -1239 1194 0
-1227 -1240 1195 0
-1227 -1241 1196 0
-1227 -1242 1197 0
-1227 -1243 1198 0
-1227 -1244 1199 0
-1227 -1245 1200 0
-1227 -1246 1201 0
-1227 -1247 1202 0
-1227 -1248 1203 0
-1227 -1249 1204 0
-1227 -1250 1205 0
-1227 -1251 1206 0
-1227 -1252 1207 0
-1227 -1253 1208 0
-1227 -1254 1209 0
-1228 -1237 1193 0
-1228 -1238 1194 0
-1228 -1239 1195 0
-1228 -1240 1196 0
-1228 -1241 1197 0
-1228 -1242 1198 0
-1228 -1243 1199 0
-1228 -1244 1200 0
-1228 -1245 1201 0
-1228 -1246 1202 0
-1228 -1247 1203 0
-1228 -1248 1204 0
-1228 -1249 1205 0
-1228 -1250 1206 0
-1228 -1251 1207 0
-1228 -1252 1208 0
-1228 -1253 1209 0
-1228 -1254 1210 0
-1229 -1237 1194 0
-1229 -1238 1195 0
-1229 -1239 1196 0
-1229 -1240 1197 0
-1229 -1241 1198 0
-1229 -1242 1199 0
-1229 -1243 1200 0
-1229 -1244 1201 0
-1229 -1245 1202 0
-1229 -1246 1203 0
-1229 -1247 1204 0
-1229 -1248 1205 0
-1229 -1249 1206 0
-1229 -1250 1207 0
-1229 -1251 1208 0
-1229 -1252 1209 0
-1229 -1253 1210 0
-1229 -1254 1211 0
-1230 -1237 1195 0
-1230 -1238 1196 0
-1230 -1239 1197 0
-1230 -1240 1198 0
-1230 -1241 1199 0
-1230 -1242 1200 0
-1230 -1243 1201 0
-1230 -1244 1202 0
-1230 -1245 1203 0
-1230 -1246 1204 0
-1230 -1247 1205 0
-1230 -1248 1206 0
-1230 -1249 1207 0
-1230 -1250 1208 0
-1230 -1251 1209 0
-1230 -1252 1210 0
-1230 -1253 1211 0
-1230 -1254 1212 0
-1231 -1237 1196 0
-1231 -1238 1197 0
-1231 -1239 1198 0
-1231 -1240 1199 0
-1231 -1241 1200 0
-1231 -1242 1201 0
-1231 -1243 1202 0
-1231 -1244 1203 0
-1231 -1245 1204 0
-1231 -1246 1205 0
-1231 -1247 1206 0
-1231 -1248 1207 0
-1231 -1249 1208 0
-1231 -1250 1209 0
-1231 -1251 1210 0
-1231 -1252 1211 0
-1231 -1253 1212 0
-1231 -1254 1213 0
-1232 -1237 1197 0
-1232 -1238 1198 0
-1232 -1239 1199 0
-1232 -1240 1200 0
-1232 -1241 1201 0
-1232 -1242 1202 0
-1232 -1243 1203 0
-1232 -1244 1204 0
-1232 -1245 1205 0
-1232 -1246 1206 0
-1232 -1247 1207 0
-1232 -1248 1208 0
-1232 -1249 1209 0
-1232 -1250 1210 0
-1232 -1251 1211 0
-1232 -1252 1212 0
-1232 -1253 1213 0
-1232 -1254 1214 0
-1233 -1237 1198 0
-1233 -1238 1199 0
-1233 -1239 1200 0
-1233 -1240 1201 0
-1233 -1241 1202 0
-1233 -1242 1203 0
-1233 -1243 1204 0
-1233 -1244 1205 0
-1233 -1245 1206 0
-1233 -1246 1207 0
-1233 -1247 1208 0
-1233 -1248 1209 0
-1233 -1249 1210 0
-1233 -1250 1211 0
-1233 -1251 1212 0
-1233 -1252 1213 0
-1233 -1253 1214 0
-1233 -1254 1215 0
-1234 -1237 1199 0
-1234 -1238 1200 0
-1234 -1239 1201 0
-1234 -1240 1202 0
-1234 -1241 1203 0
-1234 -1242 1204 0
-1234 -1243 1205 0
-1234 -1244 1206 0
-1234 -1245 1207 0
-1234 -1246 1208 0
-1234 -1247 1209 0
-1234 -1248 1210 0
-1234 -1249 1211 0
-1234 -1250 1212 0
-1234 -1251 1213 0
-1234 -1252 1214 0
-1234 -1253 1215 0
-1234 -1254 1216 0
-1235 -1237 1200 0
-1235 -1238 1201 0
-1235 -1239 1202 0
-1235 -1240 1203 0
-1235 -1241 1204 0
-1235 -1242 1205 0
-1235 -1243 1206 0
-1235 -1244 1207 0
-1235 -1245 1208 0
-1235 -1246 1209 0
-1235 -1247 1210 0
-1235 -1248 1211 0
-1235 -1249 1212 0
-1235 -1250 1213 0
-1235 -1251 1214 0
-1235 -1252 1215 0
-1235 -1253 1216 0
-1235 -1254 1217 0
-1236 -1237 1201 0
-1236 -1238 1202 0
-1236 -1239 1203 0
-1236 -1240 1204 0
-1236 -1241 1205 0
-1236 -1242 1206 0
-1236 -1243 1207 0
-1236 -1244 1208 0
-1236 -1245 1209 0
-1236 -1246 1210 0
-1236 -1247 1211 0
-1236 -1248 1212 0
-1236 -1249 1213 0
-1236 -1250 1214 0
-1236 -1251 1215 0
-1236 -1252 1216 0
-1236 -1253 1217 0
-1236 -1254 1218 0
-1264 1237 0
-1265 1238 0
-1266 1239 0
-1267 1240 0
-1268 1241 0
-1269 1242 0
-1270 1243 0
-1271 1244 0
-1272 1245 0
-1255 1237 0
-1256 1238 0
-1257 1239 0
-1258 1240 0
-1259 1241 0
-1260 1242 0
-1261 1243 0
-1262 1244 0
-1263 1245 0
-1255 -1264 1238 0
-1255 -1265 1239 0
-1255 -1266 1240 0
-1255 -1267 1241 0
-1255 -1268 1242 0
-1255 -1269 1243 0
-1255 -1270 1244 0
-1255 -1271 1245 0
-1255 -1272 1246 0
-1256 -1264 1239 0
-1256 -1265 1240 0
-1256 -1266 1241 0
-1256 -1267 1242 0
-1256 -1268 1243 0
-1256 -1269 1244 0
-1256 -1270 1245 0
-1256 -1271 1246 0
-1256 -1272 1247 0
-1257 -1264 1240 0
-1257 -1265 1241 0
-1257 -1266 1242 0
-1257 -1267 1243 0
-1257 -1268 1244 0
-1257 -1269 1245 0
-1257 -1270 1246 0
-1257 -1271 1247 0
-1257 -1272 1248 0
-1258 -1264 1241 0
-1258 -1265 1242 0
-1258 -1266 1243 0
-1258 -1267 1244 0
-1258 -1268 1245 0
-1258 -1269 1246 0
-1258 -1270 1247 0
-1258 -1271 1248 0
-1258 -1272 1249 0
-1259 -1264 1242 0
-1259 -1265 1243 0
-1259 -1266 1244 0
-1259 -1267 1245 0
-1259 -1268 1246 0
-1259 -1269 1247 0
-1259 -1270 1248 0
-1259 -1271 1249 0
-1259 -1272 1250 0
-1260 -1264 1243 0
-1260 -1265 1244 0
-1260 -1266 1245 0
-1260 -1267 1246 0
-1260 -1268 1247 0
-1260 -1269 1248 0
-1260 -1270 1249 0
-1260 -1271 1250 0
-1260 -1272 1251 0
-1261 -1264 1244 0
-1261 -1265 1245 0
-1261 -1266 1246 0
-1261 -1267 1247 0
-1261 -1268 1248 0
-1261 -1269 1249 0
-1261 -1270 1250 0
-1261 -1271 1251 0
-1261 -1272 1252 0
-1262 -1264 1245 0
-1262 -1265 1246 0
-1262 -1266 1247 0
-1262 -1267 1248 0
-1262 -1268 1249 0
-1262 -1269 1250 0
-1262 -1270 1251 0
-1262 -1271 1252 0
-1262 -1272 1253 0
-1263 -1264 1246 0
-1263 -1265 1247 0
-1263 -1266 1248 0
-1263 -1267 1249 0
-1263 -1268 1250 0
-1263 -1269 1251 0
-1263 -1270 1252 0
-1263 -1271 1253 0
-1263 -1272 1254 0
-1278 1264 0
-1279 1265 0
-1280 1266 0
-1281 1267 0
-1273 1264 0
-1274 1265 0
-1275 1266 0
-1276 1267 0
-1277 1268 0
-1273 -1278 1265 0
-1273 -1279 1266 0
-1273 -1280 1267 0
-1273 -1281 1268 0
-1274 -1278 1266 0
-1274 -1279 1267 0
-1274 -1280 1268 0
-1274 -1281 1269 0
-1275 -1278 1267 0
-1275 -1279 1268 0
-1275 -1280 1269 0
-1275 -1281 1270 0
-1276 -1278 1268 0
-1276 -1279 1269 0
-1276 -1280 1270 0
-1276 -1281 1271 0
-1277 -1278 1269 0
-1277 -1279 1270 0
-1277 -1280 1271 0
-1277 -1281 1272 0
-1284 1278 0
-1285 1279 0
-1282 1278 0
-1283 1279 0
-1282 -1284 1279 0
-1282 -1285 1280 0
-1283 -1284 1280 0
-1283 -1285 1281 0
994 1284 0
993 1284 0
993 994 1285 0
990 1282 0
989 1282 0
989 990 1283 0
-1289 1273 0
-1290 1274 0
-1286 1273 0
-1287 1274 0
-1288 1275 0
-1286 -1289 1274 0
-1286 -1290 1275 0
-1287 -1289 1275 0
-1287 -1290 1276 0
-1288 -1289 1276 0
-1288 -1290 1277 0
986 1289 0
985 1289 0
985 986 1290 0
982 1286 0
-1291 1286 0
-1292 1287 0
-1291 982 1287 0
-1292 982 1288 0
981 1291 0
978 1291 0
978 981 1292 0
-1298 1255 0
-1299 1256 0
-1300 1257 0
-1301 1258 0
-1293 1255 0
-1294 1256 0
-1295 1257 0
-1296 1258 0
-1297 1259 0
-1293 -1298 1256 0
-1293 -1299 1257 0
-1293 -1300 1258 0
-1293 -1301 1259 0
-1294 -1298 1257 0
-1294 -1299 1258 0
-1294 -1300 1259 0
-1294 -1301 1260 0
-1295 -1298 1258 0
-1295 -1299 1259 0
-1295 -1300 1260 0
-1295 -1301 1261 0
-1296 -1298 1259 0
-1296 -1299 1260 0
-1296 -1300 1261 0
-1296 -1301 1262 0
-1297 -1298 1260 0
-1297 -1299 1261 0
-1297 -1300 1262 0
-1297 -1301 1263 0
-1304 1298 0
-1305 1299 0
-1302 1298 0
-1303 1299 0
-1302 -1304 1299 0
-1302 -1305 1300 0
-1303 -1304 1300 0
-1303 -1305 1301 0
977 1304 0
974 1304 0
974 977 1305 0
973 1302 0
970 1302 0
970 973 1303 0
-1309 1293 0
-1310 1294 0
-1306 1293 0
-1307 1294 0
-1308 1295 0
-1306 -1309 1294 0
-1306 -1310 1295 0
-1307 -1309 1295 0
-1307 -1310 1296 0
-1308 -1309 1296 0
-1308 -1310 1297 0
969 1309 0
966 1309 0
966 969 1310 0
965 1306 0
-1311 1306 0
-1312 1307 0
-1311 965 1307 0
-1312 965 1308 0
962 1311 0
961 1311 0
961 962 1312 0
-1322 1219 0
-1323 1220 0
-1324 1221 0
-1325 1222 0
-1326 1223 0
-1327 1224 0
-1328 1225 0
-1329 1226 0
-1330 1227 0
-1313 1219 0
-1314 1220 0
-1315 1221 0
-1316 1222 0
-1317 1223 0
-1318 1224 0
-1319 1225 0
-1320 1226 0
-1321 1227 0
-1313 -1322 1220 0
-1313 -1323 1221 0
-1313 -1324 1222 0
-1313 -1325 1223 0
-1313 -1326 1224 0
-1313 -1327 1225 0
-1313 -1328 1226 0
-1313 -1329 1227 0
-1313 -1330 1228 0
-1314 -1322 1221 0
-1314 -1323 1222 0
-1314 -1324 1223 0
-1314 -1325 1224 0
-1314 -1326 1225 0
-1314 -1327 1226 0
-1314 -1328 1227 0
-1314 -1329 1228 0
-1314 -1330 1229 0
-1315 -1322 1222 0
-1315 -1323 1223 0
-1315 -1324 1224 0
-1315 -1325 1225 0
-1315 -1326 1226 0
-1315 -1327 1227 0
-1315 -1328 1228 0
-1315 -1329 1229 0
-1315 -1330 1230 0
-1316 -1322 1223 0
-1316 -1323 1224 0
-1316 -1324 1225 0
-1316 -1325 1226 0
-1316 -1326 1227 0
-1316 -1327 1228 0
-1316 -1328 1229 0
-1316 -1329 1230 0
-1316 -1330 1231 0
-1317 -1322 1224 0
-1317 -1323 1225 0
-1317 -1324 1226 0
-1317 -1325 1227 0
-1317 -1326 1228 0
-1317 -1327 1229 0
-1317 -1328 1230 0
-1317 -1329 1231 0
-1317 -1330 1232 0
-1318 -1322 1225 0
-1318 -1323 1226 0
-1318 -1324 1227 0
-1318 -1325 1228 0
-1318 -1326 1229 0
-1318 -1327 1230 0
-1318 -1328 1231 0
-1318 -1329 1232 0
-1318 -1330 1233 0
-1319 -1322 1226 0
-1319 -1323 1227 0
-1319 -1324 1228 0
-1319 -1325 1229 0
-1319 -1326 1230 0
-1319 -1327 1231 0
-1319 -1328 1232 0
-1319 -1329 1233 0
-1319 -1330 1234 0
-1320 -1322 1227 0
-1320 -1323 1228 0
-1320 -1324 1229 0
-1320 -1325 1230 0
-1320 -1326 1231 0
-1320 -1327 1232 0
-1320 -1328 1233 0
-1320 -1329 1234 0
-1320 -1330 1235 0
-1321 -1322 1228 0
-1321 -1323 1229 0
-1321 -1324 1230 0
-1321 -1325 1231 0
-1321 -1326 1232 0
-1321 -1327 1233 0
-1321 -1328 1234 0
-1321 -1329 1235 0
-1321 -1330 1236 0
-1336 1322 0
-1337 1323 0
-1338 1324 0
-1339 1325 0
-1331 1322 0
-1332 1323 0
-1333 1324 0
-1334 1325 0
-1335 1326 0
-1331 -1336 1323 0
-1331 -1337 1324 0
-1331 -1338 1325 0
-1331 -1339 1326 0
-1332 -1336 1324 0
-1332 -1337 1325 0
-1332 -1338 1326 0
-1332 -1339 1327 0
-1333 -1336 1325 0
-1333 -1337 1326 0
-1333 -1338 1327 0
-1333 -1339 1328 0
-1334 -1336 1326 0
-1334 -1337 1327 0
-1334 -1338 1328 0
-1334 -1339 1329 0
-1335 -1336 1327 0
-1335 -1337 1328 0
-1335 -1338 1329 0
-1335 -1339 1330 0
-1342 1336 0
-1343 1337 0
-1340 1336 0
-1341 1337 0
-1340 -1342 1337 0
-1340 -1343 1338 0
-1341 -1342 1338 0
-1341 -1343 1339 0
-992 1342 0
-991 1342 0
-991 -992 1343 0
-988 1340 0
-987 1340 0
-987 -988 1341 0
-1347 1331 0
-1348 1332 0
-1344 1331 0
-1345 1332 0
-1346 1333 0
-1344 -1347 1332 0
-1344 -1348 1333 0
-1345 -1347 1333 0
-1345 -1348 1334 0
-1346 -1347 1334 0
-1346 -1348 1335 0
-984 1347 0
-983 1347 0
-983 -984 1348 0
-980 1344 0
-1349 1344 0
-1350 1345 0
-1349 -980 1345 0
-1350 -980 1346 0
-979 1349 0
-976 1349 0
-976 -979 1350 0
-1356 1313 0
-1357 1314 0
-1358 1315 0
-1359 1316 0
-1351 1313 0
-1352 1314 0
-1353 1315 0
-1354 1316 0
-1355 1317 0
-1351 -1356 1314 0
-1351 -1357 1315 0
-1351 -1358 1316 0
-1351 -1359 1317 0
-1352 -1356 1315 0
-1352 -1357 1316 0
-1352 -1358 1317 0
-1352 -1359 1318 0
-1353 -1356 1316 0
-1353 -1357 1317 0
-1353 -1358 1318 0
-1353 -1359 1319 0
-1354 -1356 1317 0
-1354 -1357 1318 0
-1354 -1358 1319 0
-1354 -1359 1320 0
-1355 -1356 1318 0
-1355 -1357 1319 0
-1355 -1358 1320 0
-1355 -1359 1321 0
-1362 1356 0
-1363 1357 0
-1360 1356 0
-1361 1357 0
-1360 -1362 1357 0
-1360 -1363 1358 0
-1361 -1362 1358 0
-1361 -1363 1359 0
-975 1362 0
-972 1362 0
-972 -975 1363 0
-971 1360 0
-968 1360 0
-968 -971 1361 0
-1367 1351 0
-1368 1352 0
-1364 1351 0
-1365 1352 0
-1366 1353 0
-1364 -1367 1352 0
-1364 -1368 1353 0
-1365 -1367 1353 0
-1365 -1368 1354 0
-1366 -1367 1354 0
-1366 -1368 1355 0
-967 1367 0
-964 1367 0
-964 -967 1368 0
-963 1364 0
-1369 1364 0
-1370 1365 0
-1369 -963 1365 0
-1370 -963 1366 0
-960 1369 0
-959 1369 0
-959 -960 1370 0
-1200 0
-1371 1 0
-1371 9 0
1371 -1 -9 0
-1372 10 0
-1372 18 0
1372 -10 -18 0
-1373 1 0
-1373 18 0
1373 -1 -18 0
-1374 10 0
-1374 9 0
1374 -10 -9 0
-1375 2 0
-1375 7 0
1375 -2 -7 0
-1376 11 0
-1376 16 0
1376 -11 -16 0
-1377 2 0
-1377 16 0
1377 -2 -16 0
-1378 11 0
-1378 7 0
1378 -11 -7 0
-1379 3 0
-1379 8 0
1379 -3 -8 0
-1380 12 0
-1380 17 0
1380 -12 -17 0
-1381 3 0
-1381 17 0
1381 -3 -17 0
-1382 12 0
-1382 8 0
1382 -12 -8 0
-1383 4 0
-1383 3 0
1383 -4 -3 0
-1384 13 0
-1384 12 0
1384 -13 -12 0
-1385 4 0
-1385 12 0
1385 -4 -12 0
-1386 13 0
-1386 3 0
1386 -13 -3 0
-1387 5 0
-1387 1 0
1387 -5 -1 0
-1388 14 0
-1388 10 0
1388 -14 -10 0
-1389 5 0
-1389 10 0
1389 -5 -10 0
-1390 14 0
-1390 1 0
1390 -14 -1 0
-1391 6 0
-1391 2 0
1391 -6 -2 0
-1392 15 0
-1392 11 0
1392 -15 -11 0
-1393 6 0
-1393 11 0
1393 -6 -11 0
-1394 15 0
-1394 2 0
1394 -15 -2 0
-1395 7 0
-1395 6 0
1395 -7 -6 0
-1396 16 0
-1396 15 0
1396 -16 -15 0
-1397 7 0
-1397 15 0
1397 -7 -15 0
-1398 16 0
-1398 6 0
1398 -16 -6 0
-1399 8 0
-1399 4 0
1399 -8 -4 0
-1400 17 0
-1400 13 0
1400 -17 -13 0
-1401 8 0
-1401 13 0
1401 -8 -13 0
-1402 17 0
-1402 4 0
1402 -17 -4 0
-1403 9 0
-1403 5 0
1403 -9 -5 0
-1404 18 0
-1404 14 0
1404 -18 -14 0
-1405 9 0
-1405 14 0
1405 -9 -14 0
-1406 18 0
-1406 5 0
1406 -18 -5 0
-1461 1407 0
-1462 1408 0
-1463 1409 0
-1464 1410 0
-1465 1411 0
-1466 1412 0
-1467 1413 0
-1468 1414 0
-1469 1415 0
-1470 1416 0
-1471 1417 0
-1472 1418 0
-1473 1419 0
-1474 1420 0
-1475 1421 0
-1476 1422 0
-1477 1423 0
-1478 1424 0
-1443 1407 0
-1444 1408 0
-1445 1409 0
-1446 1410 0
-1447 1411 0
-1448 1412 0
-1449 1413 0
-1450 1414 0
-1451 1415 0
-1452 1416 0
-1453 1417 0
-1454 1418 0
-1455 1419 0
-1456 1420 0
-1457 1421 0
-1458 1422 0
-1459 1423 0
-1460 1424 0
-1443 -1461 1408 0
-1443 -1462 1409 0
-1443 -1463 1410 0
-1443 -1464 1411 0
-1443 -1465 1412 0
-1443 -1466 1413 0
-1443 -1467 1414 0
-1443 -1468 1415 0
-1443 -1469 1416 0
-1443 -1470 1417 0
-1443 -1471 1418 0
-1443 -1472 1419 0
-1443 -1473 1420 0
-1443 -1474 1421 0
-1443 -1475 1422 0
-1443 -1476 1423 0
-1443 -1477 1424 0
-1443 -1478 1425 0
-1444 -1461 1409 0
-1444 -1462 1410 0
-1444 -1463 1411 0
-1444 -1464 1412 0
-1444 -1465 1413 0
-1444 -1466 1414 0
-1444 -1467 1415 0
-1444 -1468 1416 0
-1444 -1469 1417 0
-1444 -1470 1418 0
-1444 -1471 1419 0
-1444 -1472 1420 0
-1444 -1473 1421 0
-1444 -1474 1422 0
-1444 -1475 1423 0
-1444 -1476 1424 0
-1444 -1477 1425 0
-1444 -1478 1426 0
-1445 -1461 1410 0
-1445 -1462 1411 0
-1445 -1463 1412 0
-1445 -1464 1413 0
-1445 -1465 1414 0
-1445 -1466 1415 0
-1445 -1467 1416 0
-1445 -1468 1417 0
-1445 -1469 1418 0
-1445 -1470 1419 0
-1445 -1471 1420 0
-1445 -1472 1421 0
-1445 -1473 1422 0
-1445 -1474 1423 0
-1445 -1475 1424 0
-1445 -1476 1425 0
-1445 -1477 1426 0
-1445 -1478 1427 0
-1446 -1461 1411 0
-1446 -1462 1412 0
-1446 -1463 1413 0
-1446 -1464 1414 0
-1446 -1465 1415 0
-1446 -1466 1416 0
-1446 -1467 1417 0
-1446 -1468 1418 0
-1446 -1469 1419 0
-1446 -1470 1420 0
-1446 -1471 1421 0
-1446 -1472 1422 0
-1446 -1473 1423 0
-1446 -1474 1424 0
-1446 -1475 1425 0
-1446 -1476 1426 0
-1446 -1477 1427 0
-1446 -1478 1428 0
-1447 -1461 1412 0
-1447 -1462 1413 0
-1447 -1463 1414 0
-1447 -1464 1415 0
-1447 -1465 1416 0
-1447 -1466 1417 0
-1447 -1467 1418 0
-1447 -1468 1419 0
-1447 -1469 1420 0
-1447 -1470 1421 0
-1447 -1471 1422 0
-1447 -1472 1423 0
-1447 -1473 1424 0
-1447 -1474 1425 0
-1447 -1475 1426 0
-1447 -1476 1427 0
-1447 -1477 1428 0
-1447 -1478 1429 0
-1448 -1461 1413 0
-1448 -1462 1414 0
-1448 -1463 1415 0
-1448 -1464 1416 0
-1448 -1465 1417 0
-1448 -1466 1418 0
-1448 -1467 1419 0
-1448 -1468 1420 0
-1448 -1469 1421 0
-1448 -1470 1422 0
-1448 -1471 1423 0
-1448 -1472 1424 0
-1448 -1473 1425 0
-1448 -1474 1426 0
-1448 -1475 1427 0
-1448 -1476 1428 0
-1448 -1477 1429 0
-1448 -1478 1430 0
-1449 -1461 1414 0
-1449 -1462 1415 0
-1449 -1463 1416 0
-1449 -1464 1417 0
-1449 -1465 1418 0
-1449 -1466 1419 0
-1449 -1467 1420 0
-1449 -1468 1421 0
-1449 -1469 1422 0
-1449 -1470 1423 0
-1449 -1471 1424 0
-1449 -1472 1425 0
-1449 -1473 1426 0
-1449 -1474 1427 0
-1449 -1475 1428 0
-1449 -1476 1429 0
-1449 -1477 1430 0
-1449 -1478 1431 0
-1450 -1461 1415 0
-1450 -1462 1416 0
-1450 -1463 1417 0
-1450 -1464 1418 0
-1450 -1465 1419 0
-1450 -1466 1420 0
-1450 -1467 1421 0
-1450 -1468 1422 0
-1450 -1469 1423 0
-1450 -1470 1424 0
-1450 -1471 1425 0
-1450 -1472 1426 0
-1450 -1473 1427 0
-1450 -1474 1428 0
-1450 -1475 1429 0
-1450 -1476 1430 0
-1450 -1477 1431 0
-1450 -1478 1432 0
-1451 -1461 1416 0
-1451 -1462 1417 0
-1451 -1463 1418 0
-1451 -1464 1419 0
-1451 -1465 1420 0
-1451 -1466 1421 0
-1451 -1467 1422 0
-1451 -1468 1423 0
-1451 -1469 1424 0
-1451 -1470 1425 0
-1451 -1471 1426 0
-1451 -1472 1427 0
-1451 -1473 1428 0
-1451 -1474 1429 0
-1451 -1475 1430 0
-1451 -1476 1431 0
-1451 -1477 1432 0
-1451 -1478 1433 0
-1452 -1461 1417 0
-1452 -1462 1418 0
-1452 -1463 1419 0
-1452 -1464 1420 0
-1452 -1465 1421 0
-1452 -1466 1422 0
-1452 -1467 1423 0
-1452 -1468 1424 0
-1452 -1469 1425 0
-1452 -1470 1426 0
-1452 -1471 1427 0
-1452 -1472 1428 0
-1452 -1473 1429 0
-1452 -1474 1430 0
-1452 -1475 1431 0
-1452 -1476 1432 0
-1452 -1477 1433 0
-1452 -1478 1434 0
-1453 -1461 1418 0
-1453 -1462 1419 0
-1453 -1463 1420 0
-1453 -1464 1421 0
-1453 -1465 1422 0
-1453 -1466 1423 0
-1453 -1467 1424 0
-1453 -1468 1425 0
-1453 -1469 1426 0
-1453 -1470 1427 0
-1453 -1471 1428 0
-1453 -1472 1429 0
-1453 -1473 1430 0
-1453 -1474 1431 0
-1453 -1475 1432 0
-1453 -1476 1433 0
-1453 -1477 1434 0
-1453 -1478 1435 0
-1454 -1461 1419 0
-1454 -1462 1420 0
-1454 -1463 1421 0
-1454 -1464 1422 0
-1454 -1465 1423 0
-1454 -1466 1424 0
-1454 -1467 1425 0
-1454 -1468 1426 0
-1454 -1469 1427 0
-1454 -1470 1428 0
-1454 -1471 1429 0
-1454 -1472 1430 0
-1454 -1473 1431 0
-1454 -1474 1432 0
-1454 -1475 1433 0
-1454 -1476 1434 0
-1454 -1477 1435 0
-1454 -1478 1436 0
-1455 -1461 1420 0
-1455 -1462 1421 0
-1455 -1463 1422 0
-1455 -1464 1423 0
-1455 -1465 1424 0
-1455 -1466 1425 0
-1455 -1467 1426 0
-1455 -1468 1427 0
-1455 -1469 1428 0
-1455 -1470 1429 0
-1455 -1471 1430 0
-1455 -1472 1431 0
-1455 -1473 1432 0
-1455 -1474 1433 0
-1455 -1475 1434 0
-1455 -1476 1435 0
-1455 -1477 1436 0
-1455 -1478 1437 0
-1456 -1461 1421 0
-1456 -1462 1422 0
-1456 -1463 1423 0
-1456 -1464 1424 0
-1456 -1465 1425 0
-1456 -1466 1426 0
-1456 -1467 1427 0
-1456 -1468 1428 0
-1456 -1469 1429 0
-1456 -1470 1430 0
-1456 -1471 1431 0
-1456 -1472 1432 0
-1456 -1473 1433 0
-1456 -1474 1434 0
-1456 -1475 1435 0
-1456 -1476 1436 0
-1456 -1477 1437 0
-1456 -1478 1438 0
-1457 -1461 1422 0
-1457 -1462 1423 0
-1457 -1463 1424 0
-1457 -1464 1425 0
-1457 -1465 1426 0
-1457 -1466 1427 0
-1457 -1467 1428 0
-1457 -1468 1429 0
-1457 -1469 1430 0
-1457 -1470 1431 0
-1457 -1471 1432 0
-1457 -1472 1433 0
-1457 -1473 1434 0
-1457 -1474 1435 0
-1457 -1475 1436 0
-1457 -1476 1437 0
-1457 -1477 1438 0
-1457 -1478 1439 0
-1458 -1461 1423 0
-1458 -1462 1424 0
-1458 -1463 1425 0
-1458 -1464 1426 0
-1458 -1465 1427 0
-1458 -1466 1428 0
-1458 -1467 1429 0
-1458 -1468 1430 0
-1458 -1469 1431 0
-1458 -1470 1432 0
-1458 -1471 1433 0
-1458 -1472 1434 0
-1458 -1473 1435 0
-1458 -1474 1436 0
-1458 -1475 1437 0
-1458 -1476 1438 0
-1458 -1477 1439 0
-1458 -1478 1440 0
-1459 -1461 1424 0
-1459 -1462 1425 0
-1459 -1463 1426 0
-1459 -1464 1427 0
-1459 -1465 1428 0
-1459 -1466 1429 0
-1459 -1467 1430 0
-1459 -1468 1431 0
-1459 -1469 1432 0
-1459 -1470 1433 0
-1459 -1471 1434 0
-1459 -1472 1435 0
-1459 -1473 1436 0
-1459 -1474 1437 0
-1459 -1475 1438 0
-1459 -1476 1439 0
-1459 -1477 1440 0
-1459 -1478 1441 0
-1460 -1461 1425 0
-1460 -1462 1426 0
-1460 -1463 1427 0
-1460 -1464 1428 0
-1460 -1465 1429 0
-1460 -1466 1430 0
-1460 -1467 1431 0
-1460 -1468 1432 0
-1460 -1469 1433 0
-1460 -1470 1434 0
-1460 -1471 1435 0
-1460 -1472 1436 0
-1460 -1473 1437 0
-1460 -1474 1438 0
-1460 -1475 1439 0
-1460 -1476 1440 0
-1460 -1477 1441 0
-1460 -1478 1442 0
-1488 1461 0
-1489 1462 0
-1490 1463 0
-1491 1464 0
-1492 1465 0
-1493 1466 0
-1494 1467 0
-1495 1468 0
-1496 1469 0
-1479 1461 0
-1480 1462 0
-1481 1463 0
-1482 1464 0
-1483 1465 0
-1484 1466 0
-1485 1467 0
-1486 1468 0
-1487 1469 0
-1479 -1488 1462 0
-1479 -1489 1463 0
-1479 -1490 1464 0
-1479 -1491 1465 0
-1479 -1492 1466 0
-1479 -1493 1467 0
-1479 -1494 1468 0
-1479 -1495 1469 0
-1479 -1496 1470 0
-1480 -1488 1463 0
-1480 -1489 1464 0
-1480 -1490 1465 0
-1480 -1491 1466 0
-1480 -1492 1467 0
-1480 -1493 1468 0
-1480 -1494 1469 0
-1480 -1495 1470 0
-1480 -1496 1471 0
-1481 -1488 1464 0
-1481 -1489 1465 0
-1481 -1490 1466 0
-1481 -1491 1467 0
-1481 -1492 1468 0
-1481 -1493 1469 0
-1481 -1494 1470 0
-1481 -1495 1471 0
-1481 -1496 1472 0
-1482 -1488 1465 0
-1482 -1489 1466 0
-1482 -1490 1467 0
-1482 -1491 1468 0
-1482 -1492 1469 0
-1482 -1493 1470 0
-1482 -1494 1471 0
-1482 -1495 1472 0
-1482 -1496 1473 0
-1483 -1488 1466 0
-1483 -1489 1467 0
-1483 -1490 1468 0
-1483 -1491 1469 0
-1483 -1492 1470 0
-1483 -1493 1471 0
-1483 -1494 1472 0
-1483 -1495 1473 0
-1483 -1496 1474 0
-1484 -1488 1467 0
-1484 -1489 1468 0
-1484 -1490 1469 0
-1484 -1491 1470 0
-1484 -1492 1471 0
-1484 -1493 1472 0
-1484 -1494 1473 0
-1484 -1495 1474 0
-1484 -1496 1475 0
-1485 -1488 1468 0
-1485 -1489 1469 0
-1485 -1490 1470 0
-1485 -1491 1471 0
-1485 -1492 1472 0
-1485 -1493 1473 0
-1485 -1494 1474 0
-1485 -1495 1475 0
-1485 -1496 1476 0
-1486 -1488 1469 0
-1486 -1489 1470 0
-1486 -1490 1471 0
-1486 -1491 1472 0
-1486 -1492 1473 0
-1486 -1493 1474 0
-1486 -1494 1475 0
-1486 -1495 1476 0
-1486 -1496 1477 0
-1487 -1488 1470 0
-1487 -1489 1471 0
-1487 -1490 1472 0
-1487 -1491 1473 0
-1487 -1492 1474 0
-1487 -1493 1475 0
-1487 -1494 1476 0
-1487 -1495 1477 0
-1487 -1496 1478 0
-1502 1488 0
-1503 1489 0
-1504 1490 0
-1505 1491 0
-1497 1488 0
-1498 1489 0
-1499 1490 0
-1500 1491 0
-1501 1492 0
-1497 -1502 1489 0
-1497 -1503 1490 0
-1497 -1504 1491 0
-1497 -1505 1492 0
-1498 -1502 1490 0
-1498 -1503 1491 0
-1498 -1504 1492 0
-1498 -1505 1493 0
-1499 -1502 1491 0
-1499 -1503 1492 0
-1499 -1504 1493 0
-1499 -1505 1494 0
-1500 -1502 1492 0
-1500 -1503 1493 0
-1500 -1504 1494 0
-1500 -1505 1495 0
-1501 -1502 1493 0
-1501 -1503 1494 0
-1501 -1504 1495 0
-1501 -1505 1496 0
-1508 1502 0
-1509 1503 0
-1506 1502 0
-1507 1503 0
-1506 -1508 1503 0
-1506 -1509 1504 0
-1507 -1508 1504 0
-1507 -1509 1505 0
-1406 1508 0
-1405 1508 0
-1405 -1406 1509 0
-1402 1506 0
-1401 1506 0
-1401 -1402 1507 0
-1513 1497 0
-1514 1498 0
-1510 1497 0
-1511 1498 0
-1512 1499 0
-1510 -1513 1498 0
-1510 -1514 1499 0
-1511 -1513 1499 0
-1511 -1514 1500 0
-1512 -1513 1500 0
-1512 -1514 1501 0
-1398 1513 0
-1397 1513 0
-1397 -1398 1514 0
-1394 1510 0
-1515 1510 0
-1516 1511 0
-1515 -1394 1511 0
-1516 -1394 1512 0
-1393 1515 0
-1390 1515 0
-1390 -1393 1516 0
-1522 1479 0
-1523 1480 0
-1524 1481 0
-1525 1482 0
-1517 1479 0
-1518 1480 0
-1519 1481 0
-1520 1482 0
-1521 1483 0
-1517 -1522 1480 0
-1517 -1523 1481 0
-1517 -1524 1482 0
-1517 -1525 1483 0
-1518 -1522 1481 0
-1518 -1523 1482 0
-1518 -1524 1483 0
-1518 -1525 1484 0
-1519 -1522 1482 0
-1519 -1523 1483 0
-1519 -1524 1484 0
-1519 -1525 1485 0
-1520 -1522 1483 0
-1520 -1523 1484 0
-1520 -1524 1485 0
-1520 -1525 1486 0
-1521 -1522 1484 0
-1521 -1523 1485 0
-1521 -1524 1486 0
-1521 -1525 1487 0
-1528 1522 0
-1529 1523 0
-1526 1522 0
-1527 1523 0
-1526 -1528 1523 0
-1526 -1529 1524 0
-1527 -1528 1524 0
-1527 -1529 1525 0
-1389 1528 0
-1386 1528 0
-1386 -1389 1529 0
-1385 1526 0
-1382 1526 0
-1382 -1385 1527 0
-1533 1517 0
-1534 1518 0
-1530 1517 0
-1531 1518 0
-1532 1519 0
-1530 -1533 1518 0
-1530 -1534 1519 0
-1531 -1533 1519 0
-1531 -1534 1520 0
-1532 -1533 1520 0
-1532 -1534 1521 0
-1381 1533 0
-1378 1533 0
-1378 -1381 1534 0
-1377 1530 0
-1535 1530 0
-1536 1531 0
-1535 -1377 1531 0
-1536 -1377 1532 0
-1374 1535 0
-1373 1535 0
-1373 -1374 1536 0
-1546 1443 0
-1547 1444 0
-1548 1445 0
-1549 1446 0
-1550 1447 0
-1551 1448 0
-1552 1449 0
-1553 1450 0
-1554 1451 0
-1537 1443 0
-1538 1444 0
-1539 1445 0
-1540 1446 0
-1541 1447 0
-1542 1448 0
-1543 1449 0
-1544 1450 0
-1545 1451 0
-1537 -1546 1444 0
-1537 -1547 1445 0
-1537 -1548 1446 0
-1537 -1549 1447 0
-1537 -1550 1448 0
-1537 -1551 1449 0
-1537 -1552 1450 0
-1537 -1553 1451 0
-1537 -1554 1452 0
-1538 -1546 1445 0
-1538 -1547 1446 0
-1538 -1548 1447 0
-1538 -1549 1448 0
-1538 -1550 1449 0
-1538 -1551 1450 0
-1538 -1552 1451 0
-1538 -1553 1452 0
-1538 -1554 1453 0
-1539 -1546 1446 0
-1539 -1547 1447 0
-1539 -1548 1448 0
-1539 -1549 1449 0
-1539 -1550 1450 0
-1539 -1551 1451 0
-1539 -1552 1452 0
-1539 -1553 1453 0
-1539 -1554 1454 0
-1540 -1546 1447 0
-1540 -1547 1448 0
-1540 -1548 1449 0
-1540 -1549 1450 0
-1540 -1550 1451 0
-1540 -1551 1452 0
-1540 -1552 1453 0
-1540 -1553 1454 0
-1540 -1554 1455 0
-1541 -1546 1448 0
-1541 -1547 1449 0
-1541 -1548 1450 0
-1541 -1549 1451 0
-1541 -1550 1452 0
-1541 -1551 1453 0
-1541 -1552 1454 0
-1541 -1553 1455 0
-1541 -1554 1456 0
-1542 -1546 1449 0
-1542 -1547 1450 0
-1542 -1548 1451 0
-1542 -1549 1452 0
-1542 -1550 1453 0
-1542 -1551 1454 0
-1542 -1552 1455 0
-1542 -1553 1456 0
-1542 -1554 1457 0
-1543 -1546 1450 0
-1543 -1547 1451 0
-1543 -1548 1452 0
-1543 -1549 1453 0
-1543 -1550 1454 0
-1543 -1551 1455 0
-1543 -1552 1456 0
-1543 -1553 1457 0
-1543 -1554 1458 0
-1544 -1546 1451 0
-1544 -1547 1452 0
-1544 -1548 1453 0
-1544 -1549 1454 0
-1544 -1550 1455 0
-1544 -1551 1456 0
-1544 -1552 1457 0
-1544 -1553 1458 0
-1544 -1554 1459 0
-1545 -1546 1452 0
-1545 -1547 1453 0
-1545 -1548 1454 0
-1545 -1549 1455 0
-1545 -1550 1456 0
-1545 -1551 1457 0
-1545 -1552 1458 0
-1545 -1553 1459 0
-1545 -1554 1460 0
-1560 1546 0
-1561 1547 0
-1562 1548 0
-1563 1549 0
-1555 1546 0
-1556 1547 0
-1557 1548 0
-1558 1549 0
-1559 1550 0
-1555 -1560 1547 0
-1555 -1561 1548 0
-1555 -1562 1549 0
-1555 -1563 1550 0
-1556 -1560 1548 0
-1556 -1561 1549 0
-1556 -1562 1550 0
-1556 -1563 1551 0
-1557 -1560 1549 0
-1557 -1561 1550 0
-1557 -1562 1551 0
-1557 -1563 1552 0
-1558 -1560 1550 0
-1558 -1561 1551 0
-1558 -1562 1552 0
-1558 -1563 1553 0
-1559 -1560 1551 0
-1559 -1561 1552 0
-1559 -1562 1553 0
-1559 -1563 1554 0
-1566 1560 0
-1567 1561 0
-1564 1560 0
-1565 1561 0
-1564 -1566 1561 0
-1564 -1567 1562 0
-1565 -1566 1562 0
-1565 -1567 1563 0
1404 1566 0
1403 1566 0
1403 1404 1567 0
1400 1564 0
1399 1564 0
1399 1400 1565 0
-1571 1555 0
-1572 1556 0
-1568 1555 0
-1569 1556 0
-1570 1557 0
-1568 -1571 1556 0
-1568 -1572 1557 0
-1569 -1571 1557 0
-1569 -1572 1558 0
-1570 -1571 1558 0
-1570 -1572 1559 0
1396 1571 0
1395 1571 0
1395 1396 1572 0
1392 1568 0
-1573 1568 0
-1574 1569 0
-1573 1392 1569 0
-1574 1392 1570 0
1391 1573 0
1388 1573 0
1388 1391 1574 0
-1580 1537 0
-1581 1538 0
-1582 1539 0
-1583 1540 0
-1575 1537 0
-1576 1538 0
-1577 1539 0
-1578 1540 0
-1579 1541 0
-1575 -1580 1538 0
-1575 -1581 1539 0
-1575 -1582 1540 0
-1575 -1583 1541 0
-1576 -1580 1539 0
-1576 -1581 1540 0
-1576 -1582 1541 0
-1576 -1583 1542 0
-1577 -1580 1540 0
-1577 -1581 1541 0
-1577 -1582 1542 0
-1577 -1583 1543 0
-1578 -1580 1541 0
-1578 -1581 1542 0
-1578 -1582 1543 0
-1578 -1583 1544 0
-1579 -1580 1542 0
-1579 -1581 1543 0
-1579 -1582 1544 0
-1579 -1583 1545 0
-1586 1580 0
-1587 1581 0
-1584 1580 0
-1585 1581 0
-1584 -1586 1581 0
-1584 -1587 1582 0
-1585 -1586 1582 0
-1585 -1587 1583 0
1387 1586 0
1384 1586 0
1384 1387 1587 0
1383 1584 0
1380 1584 0
1380 1383 1585 0
-1591 1575 0
-1592 1576 0
-1588 1575 0
-1589 1576 0
-1590 1577 0
-1588 -1591 1576 0
-1588 -1592 1577 0
-1589 -1591 1577 0
-1589 -1592 1578 0
-1590 -1591 1578 0
-1590 -1592 1579 0
1379 1591 0
1376 1591 0
1376 1379 1592 0
1375 1588 0
-1593 1588 0
-1594 1589 0
-1593 1375 1589 0
-1594 1375 1590 0
1372 1593 0
1371 1593 0
1371 1372 1594 0
-1426 0
-1649 1595 0
-1650 1596 0
-1651 1597 0
-1652 1598 0
-1653 1599 0
-1654 1600 0
-1655 1601 0
-1656 1602 0
-1657 1603 0
-1658 1604 0
-1659 1605 0
-1660 1606 0
-1661 1607 0
-1662 1608 0
-1663 1609 0
-1664 1610 0
-1665 1611 0
-1666 1612 0
-1631 1595 0
-1632 1596 0
-1633 1597 0
-1634 1598 0
-1635 1599 0
-1636 1600 0
-1637 1601 0
-1638 1602 0
-1639 1603 0
-1640 1604 0
-1641 1605 0
-1642 1606 0
-1643 1607 0
-1644 1608 0
-1645 1609 0
-1646 1610 0
-1647 1611 0
-1648 1612 0
-1631 -1649 1596 0
-1631 -1650 1597 0
-1631 -1651 1598 0
-1631 -1652 1599 0
-1631 -1653 1600 0
-1631 -1654 1601 0
-1631 -1655 1602 0
-1631 -1656 1603 0
-1631 -1657 1604 0
-1631 -1658 1605 0
-1631 -1659 1606 0
-1631 -1660 1607 0
-1631 -1661 1608 0
-1631 -1662 1609 0
-1631 -1663 1610 0
-1631 -1664 1611 0
-1631 -1665 1612 0
-1631 -1666 1613 0
-1632 -1649 1597 0
-1632 -1650 1598 0
-1632 -1651 1599 0
-1632 -1652 1600 0
-1632 -1653 1601 0
-1632 -1654 1602 0
-1632 -1655 1603 0
-1632 -1656 1604 0
-1632 -1657 1605 0
-1632 -1658 1606 0
-1632 -1659 1607 0
-1632 -1660 1608 0
-1632 -1661 1609 0
-1632 -1662 1610 0
-1632 -1663 1611 0
-1632 -1664 1612 0
-1632 -1665 1613 0
-1632 -1666 1614 0
-1633 -1649 1598 0
-1633 -1650 1599 0
-1633 -1651 1600 0
-1633 -1652 1601 0
-1633 -1653 1602 0
-1633 -1654 1603 0
-1633 -1655 1604 0
-1633 -1656 1605 0
-1633 -1657 1606 0
-1633 -1658 1607 0
-1633 -1659 1608 0
-1633 -1660 1609 0
-1633 -1661 1610 0
-1633 -1662 1611 0
-1633 -1663 1612 0
-1633 -1664 1613 0
-1633 -1665 1614 0
-1633 -1666 1615 0
-1634 -1649 1599 0
-1634 -1650 1600 0
-1634 -1651 1601 0
-1634 -1652 1602 0
-1634 -1653 1603 0
-1634 -1654 1604 0
-1634 -1655 1605 0
-1634 -1656 1606 0
-1634 -1657 1607 0
-1634 -1658 1608 0
-1634 -1659 1609 0
-1634 -1660 1610 0
-1634 -1661 1611 0
-1634 -1662 1612 0
-1634 -1663 1613 0
-1634 -1664 1614 0
-1634 -1665 1615 0
-1634 -1666 1616 0
-1635 -1649 1600 0
-1635 -1650 1601 0
-1635 -1651 1602 0
-1635 -1652 1603 0
-1635 -1653 1604 0
-1635 -1654 1605 0
-1635 -1655 1606 0
-1635 -1656 1607 0
-1635 -1657 1608 0
-1635 -1658 1609 0
-1635 -1659 1610 0
-1635 -1660 1611 0
-1635 -1661 1612 0
-1635 -1662 1613 0
-1635 -1663 1614 0
-1635 -1664 1615 0
-1635 -1665 1616 0
-1635 -1666 1617 0
-1636 -1649 1601 0
-1636 -1650 1602 0
-1636 -1651 1603 0
-1636 -1652 1604 0
-1636 -1653 1605 0
-1636 -1654 1606 0
-1636 -1655 1607 0
-1636 -1656 1608 0
-1636 -1657 1609 0
-1636 -1658 1610 0
-1636 -1659 1611 0
-1636 -1660 1612 0
-1636 -1661 1613 0
-1636 -1662 1614 0
-1636 -1663 1615 0
-1636 -1664 1616 0
-1636 -1665 1617 0
-1636 -1666 1618 0
-1637 -1649 1602 0
-1637 -1650 1603 0
-1637 -1651 1604 0
-1637 -1652 1605 0
-1637 -1653 1606 0
-1637 -1654 1607 0
-1637 -1655 1608 0
-1637 -1656 1609 0
-1637 -1657 1610 0
-1637 -1658 1611 0
-1637 -1659 1612 0
-1637 -1660 1613 0
-1637 -1661 1614 0
-1637 -1662 1615 0
-1637 -1663 1616 0
-1637 -1664 1617 0
-1637 -1665 1618 0
-1637 -1666 1619 0
-1638 -1649 1603 0
-1638 -1650 1604 0
-1638 -1651 1605 0
-1638 -1652 1606 0
-1638 -1653 1607 0
-1638 -1654 1608 0
-1638 -1655 1609 0
-1638 -1656 1610 0
-1638 -1657 1611 0
-1638 -1658 1612 0
-1638 -1659 1613 0
-1638 -1660 1614 0
-1638 -1661 1615 0
-1638 -1662 1616 0
-1638 -1663 1617 0
-1638 -1664 1618 0
-1638 -1665 1619 0
-1638 -1666 1620 0
-1639 -1649 1604 0
-1639 -1650 1605 0
-1639 -1651 1606 0
-1639 -1652 1607 0
-1639 -1653 1608 0
-1639 -1654 1609 0
-1639 -1655 1610 0
-1639 -1656 1611 0
-1639 -1657 1612 0
-1639 -1658 1613 0
-1639 -1659 1614 0
-1639 -1660 1615 0
-1639 -1661 1616 0
-1639 -1662 1617 0
-1639 -1663 1618 0
-1639 -1664 1619 0
-1639 -1665 1620 0
-1639 -1666 1621 0
-1640 -1649 1605 0
-1640 -1650 1606 0
-1640 -1651 1607 0
-1640 -1652 1608 0
-1640 -1653 1609 0
-1640 -1654 1610 0
-1640 -1655 1611 0
-1640 -1656 1612 0
-1640 -1657 1613 0
-1640 -1658 1614 0
-1640 -1659 1615 0
-1640 -1660 1616 0
-1640 -1661 1617 0
-1640 -1662 1618 0
-1640 -1663 1619 0
-1640 -1664 1620 0
-1640 -1665 1621 0
-1640 -1666 1622 0
-1641 -1649 1606 0
-1641 -1650 1607 0
-1641 -1651 1608 0
-1641 -1652 1609 0
-1641 -1653 1610 0
-1641 -1654 1611 0
-1641 -1655 1612 0
-1641 -1656 1613 0
-1641 -1657 1614 0
-1641 -1658 1615 0
-1641 -1659 1616 0
-1641 -1660 1617 0
-1641 -1661 1618 0
-1641 -1662 1619 0
-1641 -1663 1620 0
-1641 -1664 1621 0
-1641 -1665 1622 0
-1641 -1666 1623 0
-1642 -1649 1607 0
-1642 -1650 1608 0
-1642 -1651 1609 0
-1642 -1652 1610 0
-1642 -1653 1611 0
-1642 -1654 1612 0
-1642 -1655 1613 0
-1642 -1656 1614 0
-1642 -1657 1615 0
-1642 -1658 1616 0
-1642 -1659 1617 0
-1642 -1660 1618 0
-1642 -1661 1619 0
-1642 -1662 1620 0
-1642 -1663 1621 0
-1642 -1664 1622 0
-1642 -1665 1623 0
-1642 -1666 1624 0
-1643 -1649 1608 0
-1643 -1650 1609 0
-1643 -1651 1610 0
-1643 -1652 1611 0
-1643 -1653 1612 0
-1643 -1654 1613 0
-1643 -1655 1614 0
-1643 -1656 1615 0
-1643 -1657 1616 0
-1643 -1658 1617 0
-1643 -1659 1618 0
-1643 -1660 1619 0
-1643 -1661 1620 0
-1643 -1662 1621 0
-1643 -1663 1622 0
-1643 -1664 1623 0
-1643 -1665 1624 0
-1643 -1666 1625 0
-1644 -1649 1609 0
-1644 -1650 1610 0
-1644 -1651 1611 0
-1644 -1652 1612 0
-1644 -1653 1613 0
-1644 -1654 1614 0
-1644 -1655 1615 0
-1644 -1656 1616 0
-1644 -1657 1617 0
-1644 -1658 1618 0
-1644 -1659 1619 0
-1644 -1660 1620 0
-1644 -1661 1621 0
-1644 -1662 1622 0
-1644 -1663 1623 0
-1644 -1664 1624 0
-1644 -1665 1625 0
-1644 -1666 1626 0
-1645 -1649 1610 0
-1645 -1650 1611 0
-1645 -1651 1612 0
-1645 -1652 1613 0
-1645 -1653 1614 0
-1645 -1654 1615 0
-1645 -1655 1616 0
-1645 -1656 1617 0
-1645 -1657 1618 0
-1645 -1658 1619 0
-1645 -1659 1620 0
-1645 -1660 1621 0
-1645 -1661 1622 0
-1645 -1662 1623 0
-1645 -1663 1624 0
-1645 -1664 1625 0
-1645 -1665 1626 0
-1645 -1666 1627 0
-1646 -1649 1611 0
-1646 -1650 1612 0
-1646 -1651 1613 0
-1646 -1652 1614 0
-1646 -1653 1615 0
-1646 -1654 1616 0
-1646 -1655 1617 0
-1646 -1656 1618 0
-1646 -1657 1619 0
-1646 -1658 1620 0
-1646 -1659 1621 0
-1646 -1660 1622 0
-1646 -1661 1623 0
-1646 -1662 1624 0
-1646 -1663 1625 0
-1646 -1664 1626 0
-1646 -1665 1627 0
-1646 -1666 1628 0
-1647 -1649 1612 0
-1647 -1650 1613 0
-1647 -1651 1614 0
-1647 -1652 1615 0
-1647 -1653 1616 0
-1647 -1654 1617 0
-1647 -1655 1618 0
-1647 -1656 1619 0
-1647 -1657 1620 0
-1647 -1658 1621 0
-1647 -1659 1622 0
-1647 -1660 1623 0
-1647 -1661 1624 0
-1647 -1662 1625 0
-1647 -1663 1626 0
-1647 -1664 1627 0
-1647 -1665 1628 0
-1647 -1666 1629 0
-1648 -1649 1613 0
-1648 -1650 1614 0
-1648 -1651 1615 0
-1648 -1652 1616 0
-1648 -1653 1617 0
-1648 -1654 1618 0
-1648 -1655 1619 0
-1648 -1656 1620 0
-1648 -1657 1621 0
-1648 -1658 1622 0
-1648 -1659 1623 0
-1648 -1660 1624 0
-1648 -1661 1625 0
-1648 -1662 1626 0
-1648 -1663 1627 0
-1648 -1664 1628 0
-1648 -1665 1629 0
-1648 -1666 1630 0
-1676 1649 0
-1677 1650 0
-1678 1651 0
-1679 1652 0
-1680 1653 0
-1681 1654 0
-1682 1655 0
-1683 1656 0
-1684 1657 0
-1667 1649 0
-1668 1650 0
-1669 1651 0
-1670 1652 0
-1671 1653 0
-1672 1654 0
-1673 1655 0
-1674 1656 0
-1675 1657 0
-1667 -1676 1650 0
-1667 -1677 1651 0
-1667 -1678 1652 0
-1667 -1679 1653 0
-1667 -1680 1654 0
-1667 -1681 1655 0
-1667 -1682 1656 0
-1667 -1683 1657 0
-1667 -1684 1658 0
-1668 -1676 1651 0
-1668 -1677 1652 0
-1668 -1678 1653 0
-1668 -1679 1654 0
-1668 -1680 1655 0
-1668 -1681 1656 0
-1668 -1682 1657 0
-1668 -1683 1658 0
-1668 -1684 1659 0
-1669 -1676 1652 0
-1669 -1677 1653 0
-1669 -1678 1654 0
-1669 -1679 1655 0
-1669 -1680 1656 0
-1669 -1681 1657 0
-1669 -1682 1658 0
-1669 -1683 1659 0
-1669 -1684 1660 0
-1670 -1676 1653 0
-1670 -1677 1654 0
-1670 -1678 1655 0
-1670 -1679 1656 0
-1670 -1680 1657 0
-1670 -1681 1658 0
-1670 -1682 1659 0
-1670 -1683 1660 0
-1670 -1684 1661 0
-1671 -1676 1654 0
-1671 -1677 1655 0
-1671 -1678 1656 0
-1671 -1679 1657 0
-1671 -1680 1658 0
-1671 -1681 1659 0
-1671 -1682 1660 0
-1671 -1683 1661 0
-1671 -1684 1662 0
-1672 -1676 1655 0
-1672 -1677 1656 0
-1672 -1678 1657 0
-1672 -1679 1658 0
-1672 -1680 1659 0
-1672 -1681 1660 0
-1672 -1682 1661 0
-1672 -1683 1662 0
-1672 -1684 1663 0
-1673 -1676 1656 0
-1673 -1677 1657 0
-1673 -1678 1658 0
-1673 -1679 1659 0
-1673 -1680 1660 0
-1673 -1681 1661 0
-1673 -1682 1662 0
-1673 -1683 1663 0
-1673 -1684 1664 0
-1674 -1676 1657 0
-1674 -1677 1658 0
-1674 -1678 1659 0
-1674 -1679 1660 0
-1674 -1680 1661 0
-1674 -1681 1662 0
-1674 -1682 1663 0
-1674 -1683 1664 0
-1674 -1684 1665 0
-1675 -1676 1658 0
-1675 -1677 1659 0
-1675 -1678 1660 0
-1675 -1679 1661 0
-1675 -1680 1662 0
-1675 -1681 1663 0
-1675 -1682 1664 0
-1675 -1683 1665 0
-1675 -1684 1666 0
-1690 1676 0
-1691 1677 0
-1692 1678 0
-1693 1679 0
-1685 1676 0
-1686 1677 0
-1687 1678 0
-1688 1679 0
-1689 1680 0
-1685 -1690 1677 0
-1685 -1691 1678 0
-1685 -1692 1679 0
-1685 -1693 1680 0
-1686 -1690 1678 0
-1686 -1691 1679 0
-1686 -1692 1680 0
-1686 -1693 1681 0
-1687 -1690 1679 0
-1687 -1691 1680 0
-1687 -1692 1681 0
-1687 -1693 1682 0
-1688 -1690 1680 0
-1688 -1691 1681 0
-1688 -1692 1682 0
-1688 -1693 1683 0
-1689 -1690 1681 0
-1689 -1691 1682 0
-1689 -1692 1683 0
-1689 -1693 1684 0
-1696 1690 0
-1697 1691 0
-1694 1690 0
-1695 1691 0
-1694 -1696 1691 0
-1694 -1697 1692 0
-1695 -1696 1692 0
-1695 -1697 1693 0
1406 1696 0
1405 1696 0
1405 1406 1697 0
1402 1694 0
1401 1694 0
1401 1402 1695 0
-1701 1685 0
-1702 1686 0
-1698 1685 0
-1699 1686 0
-1700 1687 0
-1698 -1701 1686 0
-1698 -1702 1687 0
-1699 -1701 1687 0
-1699 -1702 1688 0
-1700 -1701 1688 0
-1700 -1702 1689 0
1398 1701 0
1397 1701 0
1397 1398 1702 0
1394 1698 0
-1703 1698 0
-1704 1699 0
-1703 1394 1699 0
-1704 1394 1700 0
1393 1703 0
1390 1703 0
1390 1393 1704 0
-1710 1667 0
-1711 1668 0
-1712 1669 0
-1713 1670 0
-1705 1667 0
-1706 1668 0
-1707 1669 0
-1708 1670 0
-1709 1671 0
-1705 -1710 1668 0
-1705 -1711 1669 0
-1705 -1712 1670 0
-1705 -1713 1671 0
-1706 -1710 1669 0
-1706 -1711 1670 0
-1706 -1712 1671 0
-1706 -1713 1672 0
-1707 -1710 1670 0
-1707 -1711 1671 0
-1707 -1712 1672 0
-1707 -1713 1673 0
-1708 -1710 1671 0
-1708 -1711 1672 0
-1708 -1712 1673 0
-1708 -1713 1674 0
-1709 -1710 1672 0
-1709 -1711 1673 0
-1709 -1712 1674 0
-1709 -1713 1675 0
-1716 1710 0
-1717 1711 0
-1714 1710 0
-1715 1711 0
-1714 -1716 1711 0
-1714 -1717 1712 0
-1715 -1716 1712 0
-1715 -1717 1713 0
1389 1716 0
1386 1716 0
1386 1389 1717 0
1385 1714 0
1382 1714 0
1382 1385 1715 0
-1721 1705 0
-1722 1706 0
-1718 1705 0
-1719 1706 0
-1720 1707 0
-1718 -1721 1706 0
-1718 -1722 1707 0
-1719 -1721 1707 0
-1719 -1722 1708 0
-1720 -1721 1708 0
-1720 -1722 1709 0
1381 1721 0
1378 1721 0
1378 1381 1722 0
1377 1718 0
-1723 1718 0
-1724 1719 0
-1723 1377 1719 0
-1724 1377 1720 0
1374 1723 0
1373 1723 0
1373 1374 1724 0
-1734 1631 0
-1735 1632 0
-1736 1633 0
-1737 1634 0
-1738 1635 0
-1739 1636 0
-1740 1637 0
-1741 1638 0
-1742 1639 0
-1725 1631 0
-1726 1632 0
-1727 1633 0
-1728 1634 0
-1729 1635 0
-1730 1636 0
-1731 1637 0
-1732 1638 0
-1733 1639 0
-1725 -1734 1632 0
-1725 -1735 1633 0
-1725 -1736 1634 0
-1725 -1737 1635 0
-1725 -1738 1636 0
-1725 -1739 1637 0
-1725 -1740 1638 0
-1725 -1741 1639 0
-1725 -1742 1640 0
-1726 -1734 1633 0
-1726 -1735 1634 0
-1726 -1736 1635 0
-1726 -1737 1636 0
-1726 -1738 1637 0
-1726 -1739 1638 0
-1726 -1740 1639 0
-1726 -1741 1640 0
-1726 -1742 1641 0
-1727 -1734 1634 0
-1727 -1735 1635 0
-1727 -1736 1636 0
-1727 -1737 1637 0
-1727 -1738 1638 0
-1727 -1739 1639 0
-1727 -1740 1640 0
-1727 -1741 1641 0
-1727 -1742 1642 0
-1728 -1734 1635 0
-1728 -1735 1636 0
-1728 -1736 1637 0
-1728 -1737 1638 0
-1728 -1738 1639 0
-1728 -1739 1640 0
-1728 -1740 1641 0
-1728 -1741 1642 0
-1728 -1742 1643 0
-1729 -1734 1636 0
-1729 -1735 1637 0
-1729 -1736 1638 0
-1729 -1737 1639 0
-1729 -1738 1640 0
-1729 -1739 1641 0
-1729 -1740 1642 0
-1729 -1741 1643 0
-1729 -1742 1644 0
-1730 -1734 1637 0
-1730 -1735 1638 0
-1730 -1736 1639 0
-1730 -1737 1640 0
-1730 -1738 1641 0
-1730 -1739 1642 0
-1730 -1740 1643 0
-1730 -1741 1644 0
-1730 -1742 1645 0
-1731 -1734 1638 0
-1731 -1735 1639 0
-1731 -1736 1640 0
-1731 -1737 1641 0
-1731 -1738 1642 0
-1731 -1739 1643 0
-1731 -1740 1644 0
-1731 -1741 1645 0
-1731 -1742 1646 0
-1732 -1734 1639 0
-1732 -1735 1640 0
-1732 -1736 1641 0
-1732 -1737 1642 0
-1732 -1738 1643 0
-1732 -1739 1644 0
-1732 -1740 1645 0
-1732 -1741 1646 0
-1732 -1742 1647 0
-1733 -1734 1640 0
-1733 -1735 1641 0
-1733 -1736 1642 0
-1733 -1737 1643 0
-1733 -1738 1644 0
-1733 -1739 1645 0
-1733 -1740 1646 0
-1733 -1741 1647 0
-1733 -1742 1648 0
-1748 1734 0
-1749 1735 0
-1750 1736 0
-1751 1737 0
-1743 1734 0
-1744 1735 0
-1745 1736 0
-1746 1737 0
-1747 1738 0
-1743 -1748 1735 0
-1743 -1749 1736 0
-1743 -1750 1737 0
-1743 -1751 1738 0
-1744 -1748 1736 0
-1744 -1749 1737 0
-1744 -1750 1738 0
-1744 -1751 1739 0
-1745 -1748 1737 0
-1745 -1749 1738 0
-1745 -1750 1739 0
-1745 -1751 1740 0
-1746 -1748 1738 0
-1746 -1749 1739 0
-1746 -1750 1740 0
-1746 -1751 1741 0
-1747 -1748 1739 0
-1747 -1749 1740 0
-1747 -1750 1741 0
-1747 -1751 1742 0
-1754 1748 0
-1755 1749 0
-1752 1748 0
-1753 1749 0
-1752 -1754 1749 0
-1752 -1755 1750 0
-1753 -1754 1750 0
-1753 -1755 1751 0
-1404 1754 0
-1403 1754 0
-1403 -1404 1755 0
-1400 1752 0
-1399 1752 0
-1399 -1400 1753 0
-1759 1743 0
-1760 1744 0
-1756 1743 0
-1757 1744 0
-1758 1745 0
-1756 -1759 1744 0
-1756 -1760 1745 0
-1757 -1759 1745 0
-1757 -1760 1746 0
-1758 -1759 1746 0
-1758 -1760 1747 0
-1396 1759 0
-1395 1759 0
-1395 -1396 1760 0
-1392 1756 0
-1761 1756 0
-1762 1757 0
-1761 -1392 1757 0
-1762 -1392 1758 0
-1391 1761 0
-1388 1761 0
-1388 -1391 1762 0
-1768 1725 0
-1769 1726 0
-1770 1727 0
-1771 1728 0
-1763 1725 0
-1764 1726 0
-1765 1727 0
-1766 1728 0
-1767 1729 0
-1763 -1768 1726 0
-1763 -1769 1727 0
-1763 -1770 1728 0
-1763 -1771 1729 0
-1764 -1768 1727 0
-1764 -1769 1728 0
-1764 -1770 1729 0
-1764 -1771 1730 0
-1765 -1768 1728 0
-1765 -1769 1729 0
-1765 -1770 1730 0
-1765 -1771 1731 0
-1766 -1768 1729 0
-1766 -1769 1730 0
-1766 -1770 1731 0
-1766 -1771 1732 0
-1767 -1768 1730 0
-1767 -1769 1731 0
-1767 -1770 1732 0
-1767 -1771 1733 0
-1774 1768 0
-1775 1769 0
-1772 1768 0
-1773 1769 0
-1772 -1774 1769 0
-1772 -1775 1770 0
-1773 -1774 1770 0
-1773 -1775 1771 0
-1387 1774 0
-1384 1774 0
-1384 -1387 1775 0
-1383 1772 0
-1380 1772 0
-1380 -1383 1773 0
-1779 1763 0
-1780 1764 0
-1776 1763 0
-1777 1764 0
-1778 1765 0
-1776 -1779 1764 0
-1776 -1780 1765 0
-1777 -1779 1765 0
-1777 -1780 1766 0
-1778 -1779 1766 0
-1778 -1780 1767 0
-1379 1779 0
-1376 1779 0
-1376 -1379 1780 0
-1375 1776 0
-1781 1776 0
-1782 1777 0
-1781 -1375 1777 0
-1782 -1375 1778 0
-1372 1781 0
-1371 1781 0
-1371 -1372 1782 0
-1612 0
-1783 1 0
-1783 8 0
1783 -1 -8 0
-1784 10 0
-1784 17 0
1784 -10 -17 0
-1785 1 0
-1785 17 0
1785 -1 -17 0
-1786 10 0
-1786 8 0
1786 -10 -8 0
-1787 2 0
-1787 9 0
1787 -2 -9 0
-1788 11 0
-1788 18 0
1788 -11 -18 0
-1789 2 0
-1789 18 0
1789 -2 -18 0
-1790 11 0
-1790 9 0
1790 -11 -9 0
-1791 3 0
-1791 7 0
1791 -3 -7 0
-1792 12 0
-1792 16 0
1792 -12 -16 0
-1793 3 0
-1793 16 0
1793 -3 -16 0
-1794 12 0
-1794 7 0
1794 -12 -7 0
-1795 4 0
-1795 2 0
1795 -4 -2 0
-1796 13 0
-1796 11 0
1796 -13 -11 0
-1797 4 0
-1797 11 0
1797 -4 -11 0
-1798 13 0
-1798 2 0
1798 -13 -2 0
-1799 5 0
-1799 3 0
1799 -5 -3 0
-1800 14 0
-1800 12 0
1800 -14 -12 0
-1801 5 0
-1801 12 0
1801 -5 -12 0
-1802 14 0
-1802 3 0
1802 -14 -3 0
-1803 6 0
-1803 1 0
1803 -6 -1 0
-1804 15 0
-1804 10 0
1804 -15 -10 0
-1805 6 0
-1805 10 0
1805 -6 -10 0
-1806 15 0
-1806 1 0
1806 -15 -1 0
-1807 7 0
-1807 5 0
1807 -7 -5 0
-1808 16 0
-1808 14 0
1808 -16 -14 0
-1809 7 0
-1809 14 0
1809 -7 -14 0
-1810 16 0
-1810 5 0
1810 -16 -5 0
-1811 8 0
-1811 6 0
1811 -8 -6 0
-1812 17 0
-1812 15 0
1812 -17 -15 0
-1813 8 0
-1813 15 0
1813 -8 -15 0
-1814 17 0
-1814 6 0
1814 -17 -6 0
-1815 9 0
-1815 4 0
1815 -9 -4 0
-1816 18 0
-1816 13 0
1816 -18 -13 0
-1817 9 0
-1817 13 0
1817 -9 -13 0
-1818 18 0
-1818 4 0
1818 -18 -4 0
-1873 1819 0
-1874 1820 0
-1875 1821 0
-1876 1822 0
-1877 1823 0
-1878 1824 0
-1879 1825 0
-1880 1826 0
-1881 1827 0
-1882 1828 0
-1883 1829 0
-1884 1830 0
-1885 1831 0
-1886 1832 0
-1887 1833 0
-1888 1834 0
-1889 1835 0
-1890 1836 0
-1855 1819 0
-1856 1820 0
-1857 1821 0
-1858 1822 0
-1859 1823 0
-1860 1824 0
-1861 1825 0
-1862 1826 0
-1863 1827 0
-1864 1828 0
-1865 1829 0
-1866 1830 0
-1867 1831 0
-1868 1832 0
-1869 1833 0
-1870 1834 0
-1871 1835 0
-1872 1836 0
-1855 -1873 1820 0
-1855 -1874 1821 0
-1855 -1875 1822 0
-1855 -1876 1823 0
-1855 -1877 1824 0
-1855 -1878 1825 0
-1855 -1879 1826 0
-1855 -1880 1827 0
-1855 -1881 1828 0
-1855 -1882 1829 0
-1855 -1883 1830 0
-1855 -1884 1831 0
-1855 -1885 1832 0
-1855 -1886 1833 0
-1855 -1887 1834 0
-1855 -1888 1835 0
-1855 -1889 1836 0
-1855 -1890 1837 0
-1856 -1873 1821 0
-1856 -1874 1822 0
-1856 -1875 1823 0
-1856 -1876 1824 0
-1856 -1877 1825 0
-1856 -1878 1826 0
-1856 -1879 1827 0
-1856 -1880 1828 0
-1856 -1881 1829 0
-1856 -1882 1830 0
-1856 -1883 1831 0
-1856 -1884 1832 0
-1856 -1885 1833 0
-1856 -1886 1834 0
-1856 -1887 1835 0
-1856 -1888 1836 0
-1856 -1889 1837 0
-1856 -1890 1838 0
-1857 -1873 1822 0
-1857 -1874 1823 0
-1857 -1875 1824 0
-1857 -1876 1825 0
-1857 -1877 1826 0
-1857 -1878 1827 0
-1857 -1879 1828 0
-1857 -1880 1829 0
-1857 -1881 1830 0
-1857 -1882 1831 0
-1857 -1883 1832 0
-1857 -1884 1833 0
-1857 -1885 1834 0
-1857 -1886 1835 0
-1857 -1887 1836 0
-1857 -1888 1837 0
-1857 -1889 1838 0
-1857 -1890 1839 0
-1858 -1873 1823 0
-1858 -1874 1824 0
-1858 -1875 1825 0
-1858 -1876 1826 0
-1858 -1877 1827 0
-1858 -1878 1828 0
-1858 -1879 1829 0
-1858 -1880 1830 0
-1858 -1881 1831 0
-1858 -1882 1832 0
-1858 -1883 1833 0
-1858 -1884 1834 0
-1858 -1885 1835 0
-1858 -1886 1836 0
-1858 -1887 1837 0
-1858 -1888 1838 0
-1858 -1889 1839 0
-1858 -1890 1840 0
-1859 -1873 1824 0
-1859 -1874 1825 0
-1859 -1875 1826 0
-1859 -1876 1827 0
-1859 -1877 1828 0
-1859 -1878 1829 0
-1859 -1879 1830 0
-1859 -1880 1831 0
-1859 -1881 1832 0
-1859 -1882 1833 0
-1859 -1883 1834 0
-1859 -1884 1835 0
-1859 -1885 1836 0
-1859 -1886 1837 0
-1859 -1887 1838 0
-1859 -1888 1839 0
-1859 -1889 1840 0
-1859 -1890 1841 0
-1860 -1873 1825 0
-1860 -1874 1826 0
-1860 -1875 1827 0
-1860 -1876 1828 0
-1860 -1877 1829 0
-1860 -1878 1830 0
-1860 -1879 1831 0
-1860 -1880 1832 0
-1860 -1881 1833 0
-1860 -1882 1834 0
-1860 -1883 1835 0
-1860 -1884 1836 0
-1860 -1885 1837 0
-1860 -1886 1838 0
-1860 -1887 1839 0
-1860 -1888 1840 0
-1860 -1889 1841 0
-1860 -1890 1842 0
-1861 -1873 1826 0
-1861 -1874 1827 0
-1861 -1875 1828 0
-1861 -1876 1829 0
-1861 -1877 1830 0
-1861 -1878 1831 0
-1861 -1879 1832 0
-1861 -1880 1833 0
-1861 -1881 1834 0
-1861 -1882 1835 0
-1861 -1883 1836 0
-1861 -1884 1837 0
-1861 -1885 1838 0
-1861 -1886 1839 0
-1861 -1887 1840 0
-1861 -1888 1841 0
-1861 -1889 1842 0
-1861 -1890 1843 0
-1862 -1873 1827 0
-1862 -1874 1828 0
-1862 -1875 1829 0
-1862 -1876 1830 0
-1862 -1877 1831 0
-1862 -1878 1832 0
-1862 -1879 1833 0
-1862 -1880 1834 0
-1862 -1881 1835 0
-1862 -1882 1836 0
-1862 -1883 1837 0
-1862 -1884 1838 0
-1862 -1885 1839 0
-1862 -1886 1840 0
-1862 -1887 1841 0
-1862 -1888 1842 0
-1862 -1889 1843 0
-1862 -1890 1844 0
-1863 -1873 1828 0
-1863 -1874 1829 0
-1863 -1875 1830 0
-1863 -1876 1831 0
-1863 -1877 1832 0
-1863 -1878 1833 0
-1863 -1879 1834 0
-1863 -1880 1835 0
-1863 -1881 1836 0
-1863 -1882 1837 0
-1863 -1883 1838 0
-1863 -1884 1839 0
-1863 -1885 1840 0
-1863 -1886 1841 0
-1863 -1887 1842 0
-1863 -1888 1843 0
-1863 -1889 1844 0
-1863 -1890 1845 0
-1864 -1873 1829 0
-1864 -1874 1830 0
-1864 -1875 1831 0
-1864 -1876 1832 0
-1864 -1877 1833 0
-1864 -1878 1834 0
-1864 -1879 1835 0
-1864 -1880 1836 0
-1864 -1881 1837 0
-1864 -1882 1838 0
-1864 -1883 1839 0
-1864 -1884 1840 0
-1864 -1885 1841 0
-1864 -1886 1842 0
-1864 -1887 1843 0
-1864 -1888 1844 0
-1864 -1889 1845 0
-1864 -1890 1846 0
-1865 -1873 1830 0
-1865 -1874 1831 0
-1865 -1875 1832 0
-1865 -1876 1833 0
-1865 -1877 1834 0
-1865 -1878 1835 0
-1865 -1879 1836 0
-1865 -1880 1837 0
-1865 -1881 1838 0
-1865 -1882 1839 0
-1865 -1883 1840 0
-1865 -1884 1841 0
-1865 -1885 1842 0
-1865 -1886 1843 0
-1865 -1887 1844 0
-1865 -1888 1845 0
-1865 -1889 1846 0
-1865 -1890 1847 0
-1866 -1873 1831 0
-1866 -1874 1832 0
-1866 -1875 1833 0
-1866 -1876 1834 0
-1866 -1877 1835 0
-1866 -1878 1836 0
-1866 -1879 1837 0
-1866 -1880 1838 0
-1866 -1881 1839 0
-1866 -1882 1840 0
-1866 -1883 1841 0
-1866 -1884 1842 0
-1866 -1885 1843 0
-1866 -1886 1844 0
-1866 -1887 1845 0
-1866 -1888 1846 0
-1866 -1889 1847 0
-1866 -1890 1848 0
-1867 -1873 1832 0
-1867 -1874 1833 0
-1867 -1875 1834 0
-1867 -1876 1835 0
-1867 -1877 1836 0
-1867 -1878 1837 0
-1867 -1879 1838 0
-1867 -1880 1839 0
-1867 -1881 1840 0
-1867 -1882 1841 0
-1867 -1883 1842 0
-1867 -1884 1843 0
-1867 -1885 1844 0
-1867 -1886 1845 0
-1867 -1887 1846 0
-1867 -1888 1847 0
-1867 -1889 1848 0
-1867 -1890 1849 0
-1868 -1873 1833 0
-1868 -1874 1834 0
-1868 -1875 1835 0
-1868 -1876 1836 0
-1868 -1877 1837 0
-1868 -1878 1838 0
-1868 -1879 1839 0
-1868 -1880 1840 0
-1868 -1881 1841 0
-1868 -1882 1842 0
-1868 -1883 1843 0
-1868 -1884 1844 0
-1868 -1885 1845 0
-1868 -1886 1846 0
-1868 -1887 1847 0
-1868 -1888 1848 0
-1868 -1889 1849 0
-1868 -1890 1850 0
-1869 -1873 1834 0
-1869 -1874 1835 0
-1869 -1875 1836 0
-1869 -1876 1837 0
-1869 -1877 1838 0
-1869 -1878 1839 0
-1869 -1879 1840 0
-1869 -1880 1841 0
-1869 -1881 1842 0
-1869 -1882 1843 0
-1869 -1883 1844 0
-1869 -1884 1845 0
-1869 -1885 1846 0
-1869 -1886 1847 0
-1869 -1887 1848 0
-1869 -1888 1849 0
-1869 -1889 1850 0
-1869 -1890 1851 0
-1870 -1873 1835 0
-1870 -1874 1836 0
-1870 -1875 1837 0
-1870 -1876 1838 0
-1870 -1877 1839 0
-1870 -1878 1840 0
-1870 -1879 1841 0
-1870 -1880 1842 0
-1870 -1881 1843 0
-1870 -1882 1844 0
-1870 -1883 1845 0
-1870 -1884 1846 0
-1870 -1885 1847 0
-1870 -1886 1848 0
-1870 -1887 1849 0
-1870 -1888 1850 0
-1870 -1889 1851 0
-1870 -1890 1852 0
-1871 -1873 1836 0
-1871 -1874 1837 0
-1871 -1875 1838 0
-1871 -1876 1839 0
-1871 -1877 1840 0
-1871 -1878 1841 0
-1871 -1879 1842 0
-1871 -1880 1843 0
-1871 -1881 1844 0
-1871 -1882 1845 0
-1871 -1883 1846 0
-1871 -1884 1847 0
-1871 -1885 1848 0
-1871 -1886 1849 0
-1871 -1887 1850 0
-1871 -1888 1851 0
-1871 -1889 1852 0
-1871 -1890 1853 0
-1872 -1873 1837 0
-1872 -1874 1838 0
-1872 -1875 1839 0
-1872 -1876 1840 0
-1872 -1877 1841 0
-1872 -1878 1842 0
-1872 -1879 1843 0
-1872 -1880 1844 0
-1872 -1881 1845 0
-1872 -1882 1846 0
-1872 -1883 1847 0
-1872 -1884 1848 0
-1872 -1885 1849 0
-1872 -1886 1850 0
-1872 -1887 1851 0
-1872 -1888 1852 0
-1872 -1889 1853 0
-1872 -1890 1854 0
-1900 1873 0
-1901 1874 0
-1902 1875 0
-1903 1876 0
-1904 1877 0
-1905 1878 0
-1906 1879 0
-1907 1880 0
-1908 1881 0
-1891 1873 0
-1892 1874 0
-1893 1875 0
-1894 1876 0
-1895 1877 0
-1896 1878 0
-1897 1879 0
-1898 1880 0
-1899 1881 0
-1891 -1900 1874 0
-1891 -1901 1875 0
-1891 -1902 1876 0
-1891 -1903 1877 0
-1891 -1904 1878 0
-1891 -1905 1879 0
-1891 -1906 1880 0
-1891 -1907 1881 0
-1891 -1908 1882 0
-1892 -1900 1875 0
-1892 -1901 1876 0
-1892 -1902 1877 0
-1892 -1903 1878 0
-1892 -1904 1879 0
-1892 -1905 1880 0
-1892 -1906 1881 0
-1892 -1907 1882 0
-1892 -1908 1883 0
-1893 -1900 1876 0
-1893 -1901 1877 0
-1893 -1902 1878 0
-1893 -1903 1879 0
-1893 -1904 1880 0
-1893 -1905 1881 0
-1893 -1906 1882 0
-1893 -1907 1883 0
-1893 -1908 1884 0
-1894 -1900 1877 0
-1894 -1901 1878 0
-1894 -1902 1879 0
-1894 -1903 1880 0
-1894 -1904 1881 0
-1894 -1905 1882 0
-1894 -1906 1883 0
-1894 -1907 1884 0
-1894 -1908 1885 0
-1895 -1900 1878 0
-1895 -1901 1879 0
-1895 -1902 1880 0
-1895 -1903 1881 0
-1895 -1904 1882 0
-1895 -1905 1883 0
-1895 -1906 1884 0
-1895 -1907 1885 0
-1895 -1908 1886 0
-1896 -1900 1879 0
-1896 -1901 1880 0
-1896 -1902 1881 0
-1896 -1903 1882 0
-1896 -1904 1883 0
-1896 -1905 1884 0
-1896 -1906 1885 0
-1896 -1907 1886 0
-1896 -1908 1887 0
-1897 -1900 1880 0
-1897 -1901 1881 0
-1897 -1902 1882 0
-1897 -1903 1883 0
-1897 -1904 1884 0
-1897 -1905 1885 0
-1897 -1906 1886 0
-1897 -1907 1887 0
-1897 -1908 1888 0
-1898 -1900 1881 0
-1898 -1901 1882 0
-1898 -1902 1883 0
-1898 -1903 1884 0
-1898 -1904 1885 0
-1898 -1905 1886 0
-1898 -1906 1887 0
-1898 -1907 1888 0
-1898 -1908 1889 0
-1899 -1900 1882 0
-1899 -1901 1883 0
-1899 -1902 1884 0
-1899 -1903 1885 0
-1899 -1904 1886 0
-1899 -1905 1887 0
-1899 -1906 1888 0
-1899 -1907 1889 0
-1899 -1908 1890 0
-1914 1900 0
-1915 1901 0
-1916 1902 0
-1917 1903 0
-1909 1900 0
-1910 1901 0
-1911 1902 0
-1912 1903 0
-1913 1904 0
-1909 -1914 1901 0
-1909 -1915 1902 0
-1909 -1916 1903 0
-1909 -1917 1904 0
-1910 -1914 1902 0
-1910 -1915 1903 0
-1910 -1916 1904 0
-1910 -1917 1905 0
-1911 -1914 1903 0
-1911 -1915 1904 0
-1911 -1916 1905 0
-1911 -1917 1906 0
-1912 -1914 1904 0
-1912 -1915 1905 0
-1912 -1916 1906 0
-1912 -1917 1907 0
-1913 -1914 1905 0
-1913 -1915 1906 0
-1913 -1916 1907 0
-1913 -1917 1908 0
-1920 1914 0
-1921 1915 0
-1918 1914 0
-1919 1915 0
-1918 -1920 1915 0
-1918 -1921 1916 0
-1919 -1920 1916 0
-1919 -1921 1917 0
-1818 1920 0
-1817 1920 0
-1817 -1818 1921 0
-1814 1918 0
-1813 1918 0
-1813 -1814 1919 0
-1925 1909 0
-1926 1910 0
-1922 1909 0
-1923 1910 0
-1924 1911 0
-1922 -1925 1910 0
-1922 -1926 1911 0
-1923 -1925 1911 0
-1923 -1926 1912 0
-1924 -1925 1912 0
-1924 -1926 1913 0
-1810 1925 0
-1809 1925 0
-1809 -1810 1926 0
-1806 1922 0
-1927 1922 0
-1928 1923 0
-1927 -1806 1923 0
-1928 -1806 1924 0
-1805 1927 0
-1802 1927 0
-1802 -1805 1928 0
-1934 1891 0
-1935 1892 0
-1936 1893 0
-1937 1894 0
-1929 1891 0
-1930 1892 0
-1931 1893 0
-1932 1894 0
-1933 1895 0
-1929 -1934 1892 0
-1929 -1935 1893 0
-1929 -1936 1894 0
-1929 -1937 1895 0
-1930 -1934 1893 0
-1930 -1935 1894 0
-1930 -1936 1895 0
-1930 -1937 1896 0
-1931 -1934 1894 0
-1931 -1935 1895 0
-1931 -1936 1896 0
-1931 -1937 1897 0
-1932 -1934 1895 0
-1932 -1935 1896 0
-1932 -1936 1897 0
-1932 -1937 1898 0
-1933 -1934 1896 0
-1933 -1935 1897 0
-1933 -1936 1898 0
-1933 -1937 1899 0
-1940 1934 0
-1941 1935 0
-1938 1934 0
-1939 1935 0
-1938 -1940 1935 0
-1938 -1941 1936 0
-1939 -1940 1936 0
-1939 -1941 1937 0
-1801 1940 0
-1798 1940 0
-1798 -1801 1941 0
-1797 1938 0
-1794 1938 0
-1794 -1797 1939 0
-1945 1929 0
-1946 1930 0
-1942 1929 0
-1943 1930 0
-1944 1931 0
-1942 -1945 1930 0
-1942 -1946 1931 0
-1943 -1945 1931 0
-1943 -1946 1932 0
-1944 -1945 1932 0
-1944 -1946 1933 0
-1793 1945 0
-1790 1945 0
-1790 -1793 1946 0
-1789 1942 0
-1947 1942 0
-1948 1943 0
-1947 -1789 1943 0
-1948 -1789 1944 0
-1786 1947 0
-1785 1947 0
-1785 -1786 1948 0
-1958 1855 0
-1959 1856 0
-1960 1857 0
-1961 1858 0
-1962 1859 0
-1963 1860 0
-1964 1861 0
-1965 1862 0
-1966 1863 0
-1949 1855 0
-1950 1856 0
-1951 1857 0
-1952 1858 0
-1953 1859 0
-1954 1860 0
-1955 1861 0
-1956 1862 0
-1957 1863 0
-1949 -1958 1856 0
-1949 -1959 1857 0
-1949 -1960 1858 0
-1949 -1961 1859 0
-1949 -1962 1860 0
-1949 -1963 1861 0
-1949 -1964 1862 0
-1949 -1965 1863 0
-1949 -1966 1864 0
-1950 -1958 1857 0
-1950 -1959 1858 0
-1950 -1960 1859 0
-1950 -1961 1860 0
-1950 -1962 1861 0
-1950 -1963 1862 0
-1950 -1964 1863 0
-1950 -1965 1864 0
-1950 -1966 1865 0
-1951 -1958 1858 0
-1951 -1959 1859 0
-1951 -1960 1860 0
-1951 -1961 1861 0
-1951 -1962 1862 0
-1951 -1963 1863 0
-1951 -1964 1864 0
-1951 -1965 1865 0
-1951 -1966 1866 0
-1952 -1958 1859 0
-1952 -1959 1860 0
-1952 -1960 1861 0
-1952 -1961 1862 0
-1952 -1962 1863 0
-1952 -1963 1864 0
-1952 -1964 1865 0
-1952 -1965 1866 0
-1952 -1966 1867 0
-1953 -1958 1860 0
-1953 -1959 1861 0
-1953 -1960 1862 0
-1953 -1961 1863 0
-1953 -1962 1864 0
-1953 -1963 1865 0
-1953 -1964 1866 0
-1953 -1965 1867 0
-1953 -1966 1868 0
-1954 -1958 1861 0
-1954 -1959 1862 0
-1954 -1960 1863 0
-1954 -1961 1864 0
-1954 -1962 1865 0
-1954 -1963 1866 0
-1954 -1964 1867 0
-1954 -1965 1868 0
-1954 -1966 1869 0
-1955 -1958 1862 0
-1955 -1959 1863 0
-1955 -1960 1864 0
-1955 -1961 1865 0
-1955 -1962 1866 0
-1955 -1963 1867 0
-1955 -1964 1868 0
-1955 -1965 1869 0
-1955 -1966 1870 0
-1956 -1958 1863 0
-1956 -1959 1864 0
-1956 -1960 1865 0
-1956 -1961 1866 0
-1956 -1962 1867 0
-1956 -1963 1868 0
-1956 -1964 1869 0
-1956 -1965 1870 0
-1956 -1966 1871 0
-1957 -1958 1864 0
-1957 -1959 1865 0
-1957 -1960 1866 0
-1957 -1961 1867 0
-1957 -1962 1868 0
-1957 -1963 1869 0
-1957 -1964 1870 0
-1957 -1965 1871 0
-1957 -1966 1872 0
-1972 1958 0
-1973 1959 0
-1974 1960 0
-1975 1961 0
-1967 1958 0
-1968 1959 0
-1969 1960 0
-1970 1961 0
-1971 1962 0
-1967 -1972 1959 0
-1967 -1973 1960 0
-1967 -1974 1961 0
-1967 -1975 1962 0
-1968 -1972 1960 0
-1968 -1973 1961 0
-1968 -1974 1962 0
-1968 -1975 1963 0
-1969 -1972 1961 0
-1969 -1973 1962 0
-1969 -1974 1963 0
-1969 -1975 1964 0
-1970 -1972 1962 0
-1970 -1973 1963 0
-1970 -1974 1964 0
-1970 -1975 1965 0
-1971 -1972 1963 0
-1971 -1973 1964 0
-1971 -1974 1965 0
-1971 -1975 1966 0
-1978 1972 0
-1979 1973 0
-1976 1972 0
-1977 1973 0
-1976 -1978 1973 0
-1976 -1979 1974 0
-1977 -1978 1974 0
-1977 -1979 1975 0
1816 1978 0
1815 1978 0
1815 1816 1979 0
1812 1976 0
1811 1976 0
1811 1812 1977 0
-1983 1967 0
-1984 1968 0
-1980 1967 0
-1981 1968 0
-1982 1969 0
-1980 -1983 1968 0
-1980 -1984 1969 0
-1981 -1983 1969 0
-1981 -1984 1970 0
-1982 -1983 1970 0
-1982 -1984 1971 0
1808 1983 0
1807 1983 0
1807 1808 1984 0
1804 1980 0
-1985 1980 0
-1986 1981 0
-1985 1804 1981 0
-1986 1804 1982 0
1803 1985 0
1800 1985 0
1800 1803 1986 0
-1992 1949 0
-1993 1950 0
-1994 1951 0
-1995 1952 0
-1987 1949 0
-1988 1950 0
-1989 1951 0
-1990 1952 0
-1991 1953 0
-1987 -1992 1950 0
-1987 -1993 1951 0
-1987 -1994 1952 0
-1987 -1995 1953 0
-1988 -1992 1951 0
-1988 -1993 1952 0
-1988 -1994 1953 0
-1988 -1995 1954 0
-1989 -1992 1952 0
-1989 -1993 1953 0
-1989 -1994 1954 0
-1989 -1995 1955 0
-1990 -1992 1953 0
-1990 -1993 1954 0
-1990 -1994 1955 0
-1990 -1995 1956 0
-1991 -1992 1954 0
-1991 -1993 1955 0
-1991 -1994 1956 0
-1991 -1995 1957 0
-1998 1992 0
-1999 1993 0
-1996 1992 0
-1997 1993 0
-1996 -1998 1993 0
-1996 -1999 1994 0
-1997 -1998 1994 0
-1997 -1999 1995 0
1799 1998 0
1796 1998 0
1796 1799 1999 0
1795 1996 0
1792 1996 0
1792 1795 1997 0
-2003 1987 0
-2004 1988 0
-2000 1987 0
-2001 1988 0
-2002 1989 0
-2000 -2003 1988 0
-2000 -2004 1989 0
-2001 -2003 1989 0
-2001 -2004 1990 0
-2002 -2003 1990 0
-2002 -2004 1991 0
1791 2003 0
1788 2003 0
1788 1791 2004 0
1787 2000 0
-2005 2000 0
-2006 2001 0
-2005 1787 2001 0
-2006 1787 2002 0
1784 2005 0
1783 2005 0
1783 1784 2006 0
-1838 0
-2061 2007 0
-2062 2008 0
-2063 2009 0
-2064 2010 0
-2065 2011 0
-2066 2012 0
-2067 2013 0
-2068 2014 0
-2069 2015 0
-2070 2016 0
-2071 2017 0
-2072 2018 0
-2073 2019 0
-2074 2020 0
-2075 2021 0
-2076 2022 0
-2077 2023 0
-2078 2024 0
-2043 2007 0
-2044 2008 0
-2045 2009 0
-2046 2010 0
-2047 2011 0
-2048 2012 0
-2049 2013 0
-2050 2014 0
-2051 2015 0
-2052 2016 0
-2053 2017 0
-2054 2018 0
-2055 2019 0
-2056 2020 0
-2057 2021 0
-2058 2022 0
-2059 2023 0
-2060 2024 0
-2043 -2061 2008 0
-2043 -2062 2009 0
-2043 -2063 2010 0
-2043 -2064 2011 0
-2043 -2065 2012 0
-2043 -2066 2013 0
-2043 -2067 2014 0
-2043 -2068 2015 0
-2043 -2069 2016 0
-2043 -2070 2017 0
-2043 -2071 2018 0
-2043 -2072 2019 0
-2043 -2073 2020 0
-2043 -2074 2021 0
-2043 -2075 2022 0
-2043 -2076 2023 0
-2043 -2077 2024 0
-2043 -2078 2025 0
-2044 -2061 2009 0
-2044 -2062 2010 0
-2044 -2063 2011 0
-2044 -2064 2012 0
-2044 -2065 2013 0
-2044 -2066 2014 0
-2044 -2067 2015 0
-2044 -2068 2016 0
-2044 -2069 2017 0
-2044 -2070 2018 0
-2044 -2071 2019 0
-2044 -2072 2020 0
-2044 -2073 2021 0
-2044 -2074 2022 0
-2044 -2075 2023 0
-2044 -2076 2024 0
-2044 -2077 2025 0
-2044 -2078 2026 0
-2045 -2061 2010 0
-2045 -2062 2011 0
-2045 -2063 2012 0
-2045 -2064 2013 0
-2045 -2065 2014 0
-2045 -2066 2015 0
-2045 -2067 2016 0
-2045 -2068 2017 0
-2045 -2069 2018 0
-2045 -2070 2019 0
-2045 -2071 2020 0
-2045 -2072 2021 0
-2045 -2073 2022 0
-2045 -2074 2023 0
-2045 -2075 2024 0
-2045 -2076 2025 0
-2045 -2077 2026 0
-2045 -2078 2027 0
-2046 -2061 2011 0
-2046 -2062 2012 0
-2046 -2063 2013 0
-2046 -2064 2014 0
-2046 -2065 2015 0
-2046 -2066 2016 0
-2046 -2067 2017 0
-2046 -2068 2018 0
-2046 -2069 2019 0
-2046 -2070 2020 0
-2046 -2071 2021 0
-2046 -2072 2022 0
-2046 -2073 2023 0
-2046 -2074 2024 0
-2046 -2075 2025 0
-2046 -2076 2026 0
-2046 -2077 2027 0
-2046 -2078 2028 0
-2047 -2061 2012 0
-2047 -2062 2013 0
-2047 -2063 2014 0
-2047 -2064 2015 0
-2047 -2065 2016 0
-2047 -2066 2017 0
-2047 -2067 2018 0
-2047 -2068 2019 0
-2047 -2069 2020 0
-2047 -2070 2021 0
-2047 -2071 2022 0
-2047 -2072 2023 0
-2047 -2073 2024 0
-2047 -2074 2025 0
-2047 -2075 2026 0
-2047 -2076 2027 0
-2047 -2077 2028 0
-2047 -2078 2029 0
-2048 -2061 2013 0
-2048 -2062 2014 0
-2048 -2063 2015 0
-2048 -2064 2016 0
-2048 -2065 2017 0
-2048 -2066 2018 0
-2048 -2067 2019 0
-2048 -2068 2020 0
-2048 -2069 2021 0
-2048 -2070 2022 0
-2048 -2071 2023 0
-2048 -2072 2024 0
-2048 -2073 2025 0
-2048 -2074 2026 0
-2048 -2075 2027 0
-2048 -2076 2028 0
-2048 -2077 2029 0
-2048 -2078 2030 0
-2049 -2061 2014 0
-2049 -2062 2015 0
-2049 -2063 2016 0
-2049 -2064 2017 0
-2049 -2065 2018 0
-2049 -2066 2019 0
-2049 -2067 2020 0
-2049 -2068 2021 0
-2049 -2069 2022 0
-2049 -2070 2023 0
-2049 -2071 2024 0
-2049 -2072 2025 0
-2049 -2073 2026 0
-2049 -2074 2027 0
-2049 -2075 2028 0
-2049 -2076 2029 0
-2049 -2077 2030 0
-2049 -2078 2031 0
-2050 -2061 2015 0
-2050 -2062 2016 0
-2050 -2063 2017 0
-2050 -2064 2018 0
-2050 -2065 2019 0
-2050 -2066 2020 0
-2050 -2067 2021 0
-2050 -2068 2022 0
-2050 -2069 2023 0
-2050 -2070 2024 0
-2050 -2071 2025 0
-2050 -2072 2026 0
-2050 -2073 2027 0
-2050 -2074 2028 0
-2050 -2075 2029 0
-2050 -2076 2030 0
-2050 -2077 2031 0
-2050 -2078 2032 0
-2051 -2061 2016 0
-2051 -2062 2017 0
-2051 -2063 2018 0
-2051 -2064 2019 0
-2051 -2065 2020 0
-2051 -2066 2021 0
-2051 -2067 2022 0
-2051 -2068 2023 0
-2051 -2069 2024 0
-2051 -2070 2025 0
-2051 -2071 2026 0
-2051 -2072 2027 0
-2051 -2073 2028 0
-2051 -2074 2029 0
-2051 -2075 2030 0
-2051 -2076 2031 0
-2051 -2077 2032 0
-2051 -2078 2033 0
-2052 -2061 2017 0
-2052 -2062 2018 0
-2052 -2063 2019 0
-2052 -2064 2020 0
-2052 -2065 2021 0
-2052 -2066 2022 0
-2052 -2067 2023 0
-2052 -2068 2024 0
-2052 -2069 2025 0
-2052 -2070 2026 0
-2052 -2071 2027 0
-2052 -2072 2028 0
-2052 -2073 2029 0
-2052 -2074 2030 0
-2052 -2075 2031 0
-2052 -2076 2032 0
-2052 -2077 2033 0
-2052 -2078 2034 0
-2053 -2061 2018 0
-2053 -2062 2019 0
-2053 -2063 2020 0
-2053 -2064 2021 0
-2053 -2065 2022 0
-2053 -2066 2023 0
-2053 -2067 2024 0
-2053 -2068 2025 0
-2053 -2069 2026 0
-2053 -2070 2027 0
-2053 -2071 2028 0
-2053 -2072 2029 0
-2053 -2073 2030 0
-2053 -2074 2031 0
-2053 -2075 2032 0
-2053 -2076 2033 0
-2053 -2077 2034 0
-2053 -2078 2035 0
-2054 -2061 2019 0
-2054 -2062 2020 0
-2054 -2063 2021 0
-2054 -2064 2022 0
-2054 -2065 2023 0
-2054 -2066 2024 0
-2054 -2067 2025 0
-2054 -2068 2026 0
-2054 -2069 2027 0
-2054 -2070 2028 0
-2054 -2071 2029 0
-2054 -2072 2030 0
-2054 -2073 2031 0
-2054 -2074 2032 0
-2054 -2075 2033 0
-2054 -2076 2034 0
-2054 -2077 2035 0
-2054 -2078 2036 0
-2055 -2061 2020 0
-2055 -2062 2021 0
-2055 -2063 2022 0
-2055 -2064 2023 0
-2055 -2065 2024 0
-2055 -2066 2025 0
-2055 -2067 2026 0
-2055 -2068 2027 0
-2055 -2069 2028 0
-2055 -2070 2029 0
-2055 -2071 2030 0
-2055 -2072 2031 0
-2055 -2073 2032 0
-2055 -2074 2033 0
-2055 -2075 2034 0
-2055 -2076 2035 0
-2055 -2077 2036 0
-2055 -2078 2037 0
-2056 -2061 2021 0
-2056 -2062 2022 0
-2056 -2063 2023 0
-2056 -2064 2024 0
-2056 -2065 2025 0
-2056 -2066 2026 0
-2056 -2067 2027 0
-2056 -2068 2028 0
-2056 -2069 2029 0
-2056 -2070 2030 0
-2056 -2071 2031 0
-2056 -2072 2032 0
-2056 -2073 2033 0
-2056 -2074 2034 0
-2056 -2075 2035 0
-2056 -2076 2036 0
-2056 -2077 2037 0
-2056 -2078 2038 0
-2057 -2061 2022 0
-2057 -2062 2023 0
-2057 -2063 2024 0
-2057 -2064 2025 0
-2057 -2065 2026 0
-2057 -2066 2027 0
-2057 -2067 2028 0
-2057 -2068 2029 0
-2057 -2069 2030 0
-2057 -2070 2031 0
-2057 -2071 2032 0
-2057 -2072 2033 0
-2057 -2073 2034 0
-2057 -2074 2035 0
-2057 -2075 2036 0
-2057 -2076 2037 0
-2057 -2077 2038 0
-2057 -2078 2039 0
-2058 -2061 2023 0
-2058 -2062 2024 0
-2058 -2063 2025 0
-2058 -2064 2026 0
-2058 -2065 2027 0
-2058 -2066 2028 0
-2058 -2067 2029 0
-2058 -2068 2030 0
-2058 -2069 2031 0
-2058 -2070 2032 0
-2058 -2071 2033 0
-2058 -2072 2034 0
-2058 -2073 2035 0
-2058 -2074 2036 0
-2058 -2075 2037 0
-2058 -2076 2038 0
-2058 -2077 2039 0
-2058 -2078 2040 0
-2059 -2061 2024 0
-2059 -2062 2025 0
-2059 -2063 2026 0
-2059 -2064 2027 0
-2059 -2065 2028 0
-2059 -2066 2029 0
-2059 -2067 2030 0
-2059 -2068 2031 0
-2059 -2069 2032 0
-2059 -2070 2033 0
-2059 -2071 2034 0
-2059 -2072 2035 0
-2059 -2073 2036 0
-2059 -2074 2037 0
-2059 -2075 2038 0
-2059 -2076 2039 0
-2059 -2077 2040 0
-2059 -2078 2041 0
-2060 -2061 2025 0
-2060 -2062 2026 0
-2060 -2063 2027 0
-2060 -2064 2028 0
-2060 -2065 2029 0
-2060 -2066 2030 0
-2060 -2067 2031 0
-2060 -2068 2032 0
-2060 -2069 2033 0
-2060 -2070 2034 0
-2060 -2071 2035 0
-2060 -2072 2036 0
-2060 -2073 2037 0
-2060 -2074 2038 0
-2060 -2075 2039 0
-2060 -2076 2040 0
-2060 -2077 2041 0
-2060 -2078 2042 0
-2088 2061 0
-2089 2062 0
-2090 2063 0
-2091 2064 0
-2092 2065 0
-2093 2066 0
-2094 2067 0
-2095 2068 0
-2096 2069 0
-2079 2061 0
-2080 2062 0
-2081 2063 0
-2082 2064 0
-2083 2065 0
-2084 2066 0
-2085 2067 0
-2086 2068 0
-2087 2069 0
-2079 -2088 2062 0
-2079 -2089 2063 0
-2079 -2090 2064 0
-2079 -2091 2065 0
-2079 -2092 2066 0
-2079 -2093 2067 0
-2079 -2094 2068 0
-2079 -2095 2069 0
-2079 -2096 2070 0
-2080 -2088 2063 0
-2080 -2089 2064 0
-2080 -2090 2065 0
-2080 -2091 2066 0
-2080 -2092 2067 0
-2080 -2093 2068 0
-2080 -2094 2069 0
-2080 -2095 2070 0
-2080 -2096 2071 0
-2081 -2088 2064 0
-2081 -2089 2065 0
-2081 -2090 2066 0
-2081 -2091 2067 0
-2081 -2092 2068 0
-2081 -2093 2069 0
-2081 -2094 2070 0
-2081 -2095 2071 0
-2081 -2096 2072 0
-2082 -2088 2065 0
-2082 -2089 2066 0
-2082 -2090 2067 0
-2082 -2091 2068 0
-2082 -2092 2069 0
-2082 -2093 2070 0
-2082 -2094 2071 0
-2082 -2095 2072 0
-2082 -2096 2073 0
-2083 -2088 2066 0
-2083 -2089 2067 0
-2083 -2090 2068 0
-2083 -2091 2069 0
-2083 -2092 2070 0
-2083 -2093 2071 0
-2083 -2094 2072 0
-2083 -2095 2073 0
-2083 -2096 2074 0
-2084 -2088 2067 0
-2084 -2089 2068 0
-2084 -2090 2069 0
-2084 -2091 2070 0
-2084 -2092 2071 0
-2084 -2093 2072 0
-2084 -2094 2073 0
-2084 -2095 2074 0
-2084 -2096 2075 0
-2085 -2088 2068 0
-2085 -2089 2069 0
-2085 -2090 2070 0
-2085 -2091 2071 0
-2085 -2092 2072 0
-2085 -2093 2073 0
-2085 -2094 2074 0
-2085 -2095 2075 0
-2085 -2096 2076 0
-2086 -2088 2069 0
-2086 -2089 2070 0
-2086 -2090 2071 0
-2086 -2091 2072 0
-2086 -2092 2073 0
-2086 -2093 2074 0
-2086 -2094 2075 0
-2086 -2095 2076 0
-2086 -2096 2077 0
-2087 -2088 2070 0
-2087 -2089 2071 0
-2087 -2090 2072 0
-2087 -2091 2073 0
-2087 -2092 2074 0
-2087 -2093 2075 0
-2087 -2094 2076 0
-2087 -2095 2077 0
-2087 -2096 2078 0
-2102 2088 0
-2103 2089 0
-2104 2090 0
-2105 2091 0
-2097 2088 0
-2098 2089 0
-2099 2090 0
-2100 2091 0
-2101 2092 0
-2097 -2102 2089 0
-2097 -2103 2090 0
-2097 -2104 2091 0
-2097 -2105 2092 0
-2098 -2102 2090 0
-2098 -2103 2091 0
-2098 -2104 2092 0
-2098 -2105 2093 0
-2099 -2102 2091 0
-2099 -2103 2092 0
-2099 -2104 2093 0
-2099 -2105 2094 0
-2100 -2102 2092 0
-2100 -2103 2093 0
-2100 -2104 2094 0
-2100 -2105 2095 0
-2101 -2102 2093 0
-2101 -2103 2094 0
-2101 -2104 2095 0
-2101 -2105 2096 0
-2108 2102 0
-2109 2103 0
-2106 2102 0
-2107 2103 0
-2106 -2108 2103 0
-2106 -2109 2104 0
-2107 -2108 2104 0
-2107 -2109 2105 0
1818 2108 0
1817 2108 0
1817 1818 2109 0
1814 2106 0
1813 2106 0
1813 1814 2107 0
-2113 2097 0
-2114 2098 0
-2110 2097 0
-2111 2098 0
-2112 2099 0
-2110 -2113 2098 0
-2110 -2114 2099 0
-2111 -2113 2099 0
-2111 -2114 2100 0
-2112 -2113 2100 0
-2112 -2114 2101 0
1810 2113 0
1809 2113 0
1809 1810 2114 0
1806 2110 0
-2115 2110 0
-2116 2111 0
-2115 1806 2111 0
-2116 1806 2112 0
1805 2115 0
1802 2115 0
1802 1805 2116 0
-2122 2079 0
-2123 2080 0
-2124 2081 0
-2125 2082 0
-2117 2079 0
-2118 2080 0
-2119 2081 0
-2120 2082 0
-2121 2083 0
-2117 -2122 2080 0
-2117 -2123 2081 0
-2117 -2124 2082 0
-2117 -2125 2083 0
-2118 -2122 2081 0
-2118 -2123 2082 0
-2118 -2124 2083 0
-2118 -2125 2084 0
-2119 -2122 2082 0
-2119 -2123 2083 0
-2119 -2124 2084 0
-2119 -2125 2085 0
-2120 -2122 2083 0
-2120 -2123 2084 0
-2120 -2124 2085 0
-2120 -2125 2086 0
-2121 -2122 2084 0
-2121 -2123 2085 0
-2121 -2124 2086 0
-2121 -2125 2087 0
-2128 2122 0
-2129 2123 0
-2126 2122 0
-2127 2123 0
-2126 -2128 2123 0
-2126 -2129 2124 0
-2127 -2128 2124 0
-2127 -2129 2125 0
1801 2128 0
1798 2128 0
1798 1801 2129 0
1797 2126 0
1794 2126 0
1794 1797 2127 0
-2133 2117 0
-2134 2118 0
-2130 2117 0
-2131 2118 0
-2132 2119 0
-2130 -2133 2118 0
-2130 -2134 2119 0
-2131 -2133 2119 0
-2131 -2134 2120 0
-2132 -2133 2120 0
-2132 -2134 2121 0
1793 2133 0
1790 2133 0
1790 1793 2134 0
1789 2130 0
-2135 2130 0
-2136 2131 0
-2135 1789 2131 0
-2136 1789 2132 0
1786 2135 0
1785 2135 0
1785 1786 2136 0
-2146 2043 0
-2147 2044 0
-2148 2045 0
-2149 2046 0
-2150 2047 0
-2151 2048 0
-2152 2049 0
-2153 2050 0
-2154 2051 0
-2137 2043 0
-2138 2044 0
-2139 2045 0
-2140 2046 0
-2141 2047 0
-2142 2048 0
-2143 2049 0
-2144 2050 0
-2145 2051 0
-2137 -2146 2044 0
-2137 -2147 2045 0
-2137 -2148 2046 0
-2137 -2149 2047 0
-2137 -2150 2048 0
-2137 -2151 2049 0
-2137 -2152 2050 0
-2137 -2153 2051 0
-2137 -2154 2052 0
-2138 -2146 2045 0
-2138 -2147 2046 0
-2138 -2148 2047 0
-2138 -2149 2048 0
-2138 -2150 2049 0
-2138 -2151 2050 0
-2138 -2152 2051 0
-2138 -2153 2052 0
-2138 -2154 2053 0
-2139 -2146 2046 0
-2139 -2147 2047 0
-2139 -2148 2048 0
-2139 -2149 2049 0
-2139 -2150 2050 0
-2139 -2151 2051 0
-2139 -2152 2052 0
-2139 -2153 2053 0
-2139 -2154 2054 0
-2140 -2146 2047 0
-2140 -2147 2048 0
-2140 -2148 2049 0
-2140 -2149 2050 0
-2140 -2150 2051 0
-2140 -2151 2052 0
-2140 -2152 2053 0
-2140 -2153 2054 0
-2140 -2154 2055 0
-2141 -2146 2048 0
-2141 -2147 2049 0
-2141 -2148 2050 0
-2141 -2149 2051 0
-2141 -2150 2052 0
-2141 -2151 2053 0
-2141 -2152 2054 0
-2141 -2153 2055 0
-2141 -2154 2056 0
-2142 -2146 2049 0
-2142 -2147 2050 0
-2142 -2148 2051 0
-2142 -2149 2052 0
-2142 -2150 2053 0
-2142 -2151 2054 0
-2142 -2152 2055 0
-2142 -2153 2056 0
-2142 -2154 2057 0
-2143 -2146 2050 0
-2143 -2147 2051 0
-2143 -2148 2052 0
-2143 -2149 2053 0
-2143 -2150 2054 0
-2143 -2151 2055 0
-2143 -2152 2056 0
-2143 -2153 2057 0
-2143 -2154 2058 0
-2144 -2146 2051 0
-2144 -2147 2052 0
-2144 -2148 2053 0
-2144 -2149 2054 0
-2144 -2150 2055 0
-2144 -2151 2056 0
-2144 -2152 2057 0
-2144 -2153 2058 0
-2144 -2154 2059 0
-2145 -2146 2052 0
-2145 -2147 2053 0
-2145 -2148 2054 0
-2145 -2149 2055 0
-2145 -2150 2056 0
-2145 -2151 2057 0
-2145 -2152 2058 0
-2145 -2153 2059 0
-2145 -2154 2060 0
-2160 2146 0
-2161 2147 0
-2162 2148 0
-2163 2149 0
-2155 2146 0
-2156 2147 0
-2157 2148 0
-2158 2149 0
-2159 2150 0
-2155 -2160 2147 0
-2155 -2161 2148 0
-2155 -2162 2149 0
-2155 -2163 2150 0
-2156 -2160 2148 0
-2156 -2161 2149 0
-2156 -2162 2150 0
-2156 -2163 2151 0
-2157 -2160 2149 0
-2157 -2161 2150 0
-2157 -2162 2151 0
-2157 -2163 2152 0
-2158 -2160 2150 0
-2158 -2161 2151 0
-2158 -2162 2152 0
-2158 -2163 2153 0
-2159 -2160 2151 0
-2159 -2161 2152 0
-2159 -2162 2153 0
-2159 -2163 2154 0
-2166 2160 0
-2167 2161 0
-2164 2160 0
-2165 2161 0
-2164 -2166 2161 0
-2164 -2167 2162 0
-2165 -2166 2162 0
-2165 -2167 2163 0
-1816 2166 0
-1815 2166 0
-1815 -1816 2167 0
-1812 2164 0
-1811 2164 0
-1811 -1812 2165 0
-2171 2155 0
-2172 2156 0
-2168 2155 0
-2169 2156 0
-2170 2157 0
-2168 -2171 2156 0
-2168 -2172 2157 0
-2169 -2171 2157 0
-2169 -2172 2158 0
-2170 -2171 2158 0
-2170 -2172 2159 0
-1808 2171 0
-1807 2171 0
-1807 -1808 2172 0
-1804 2168 0
-2173 2168 0
-2174 2169 0
-2173 -1804 2169 0
-2174 -1804 2170 0
-1803 2173 0
-1800 2173 0
-1800 -1803 2174 0
-2180 2137 0
-2181 2138 0
-2182 2139 0
-2183 2140 0
-2175 2137 0
-2176 2138 0
-2177 2139 0
-2178 2140 0
-2179 2141 0
-2175 -2180 2138 0
-2175 -2181 2139 0
-2175 -2182 2140 0
-2175 -2183 2141 0
-2176 -2180 2139 0
-2176 -2181 2140 0
-2176 -2182 2141 0
-2176 -2183 2142 0
-2177 -2180 2140 0
-2177 -2181 2141 0
-2177 -2182 2142 0
-2177 -2183 2143 0
-2178 -2180 2141 0
-2178 -2181 2142 0
-2178 -2182 2143 0
-2178 -2183 2144 0
-2179 -2180 2142 0
-2179 -2181 2143 0
-2179 -2182 2144 0
-2179 -2183 2145 0
-2186 2180 0
-2187 2181 0
-2184 2180 0
-2185 2181 0
-2184 -2186 2181 0
-2184 -2187 2182 0
-2185 -2186 2182 0
-2185 -2187 2183 0
-1799 2186 0
-1796 2186 0
-1796 -1799 2187 0
-1795 2184 0
-1792 2184 0
-1792 -1795 2185 0
-2191 2175 0
-2192 2176 0
-2188 2175 0
-2189 2176 0
-2190 2177 0
-2188 -2191 2176 0
-2188 -2192 2177 0
-2189 -2191 2177 0
-2189 -2192 2178 0
-2190 -2191 2178 0
-2190 -2192 2179 0
-1791 2191 0
-1788 2191 0
-1788 -1791 2192 0
-1787 2188 0
-2193 2188 0
-2194 2189 0
-2193 -1787 2189 0
-2194 -1787 2190 0
-1784 2193 0
-1783 2193 0
-1783 -1784 2194 0
-2024 0
-2195 1 0
-2195 4 0
2195 -1 -4 0
-2196 10 0
-2196 13 0
2196 -10 -13 0
-2197 1 0
-2197 13 0
2197 -1 -13 0
-2198 10 0
-2198 4 0
2198 -10 -4 0
-2199 2 0
-2199 5 0
2199 -2 -5 0
-2200 11 0
-2200 14 0
2200 -11 -14 0
-2201 2 0
-2201 14 0
2201 -2 -14 0
-2202 11 0
-2202 5 0
2202 -11 -5 0
-2203 3 0
-2203 6 0
2203 -3 -6 0
-2204 12 0
-2204 15 0
2204 -12 -15 0
-2205 3 0
-2205 15 0
2205 -3 -15 0
-2206 12 0
-2206 6 0
2206 -12 -6 0
-2207 4 0
-2207 7 0
2207 -4 -7 0
-2208 13 0
-2208 16 0
2208 -13 -16 0
-2209 4 0
-2209 16 0
2209 -4 -16 0
-2210 13 0
-2210 7 0
2210 -13 -7 0
-2211 5 0
-2211 8 0
2211 -5 -8 0
-2212 14 0
-2212 17 0
2212 -14 -17 0
-2213 5 0
-2213 17 0
2213 -5 -17 0
-2214 14 0
-2214 8 0
2214 -14 -8 0
-2215 6 0
-2215 9 0
2215 -6 -9 0
-2216 15 0
-2216 18 0
2216 -15 -18 0
-2217 6 0
-2217 18 0
2217 -6 -18 0
-2218 15 0
-2218 9 0
2218 -15 -9 0
-2219 7 0
-2219 1 0
2219 -7 -1 0
-2220 16 0
-2220 10 0
2220 -16 -10 0
-2221 7 0
-2221 10 0
2221 -7 -10 0
-2222 16 0
-2222 1 0
2222 -16 -1 0
-2223 8 0
-2223 2 0
2223 -8 -2 0
-2224 17 0
-2224 11 0
2224 -17 -11 0
-2225 8 0
-2225 11 0
2225 -8 -11 0
-2226 17 0
-2226 2 0
2226 -17 -2 0
-2227 9 0
-2227 3 0
2227 -9 -3 0
-2228 18 0
-2228 12 0
2228 -18 -12 0
-2229 9 0
-2229 12 0
2229 -9 -12 0
-2230 18 0
-2230 3 0
2230 -18 -3 0
-2285 2231 0
-2286 2232 0
-2287 2233 0
-2288 2234 0
-2289 2235 0
-2290 2236 0
-2291 2237 0
-2292 2238 0
-2293 2239 0
-2294 2240 0
-2295 2241 0
-2296 2242 0
-2297 2243 0
-2298 2244 0
-2299 2245 0
-2300 2246 0
-2301 2247 0
-2302 2248 0
-2267 2231 0
-2268 2232 0
-2269 2233 0
-2270 2234 0
-2271 2235 0
-2272 2236 0
-2273 2237 0
-2274 2238 0
-2275 2239 0
-2276 2240 0
-2277 2241 0
-2278 2242 0
-2279 2243 0
-2280 2244 0
-2281 2245 0
-2282 2246 0
-2283 2247 0
-2284 2248 0
-2267 -2285 2232 0
-2267 -2286 2233 0
-2267 -2287 2234 0
-2267 -2288 2235 0
-2267 -2289 2236 0
-2267 -2290 2237 0
-2267 -2291 2238 0
-2267 -2292 2239 0
-2267 -2293 2240 0
-2267 -2294 2241 0
-2267 -2295 2242 0
-2267 -2296 2243 0
-2267 -2297 2244 0
-2267 -2298 2245 0
-2267 -2299 2246 0
-2267 -2300 2247 0
-2267 -2301 2248 0
-2267 -2302 2249 0
-2268 -2285 2233 0
-2268 -2286 2234 0
-2268 -2287 2235 0
-2268 -2288 2236 0
-2268 -2289 2237 0
-2268 -2290 2238 0
-2268 -2291 2239 0
-2268 -2292 2240 0
-2268 -2293 2241 0
-2268 -2294 2242 0
-2268 -2295 2243 0
-2268 -2296 2244 0
-2268 -2297 2245 0
-2268 -2298 2246 0
-2268 -2299 2247 0
-2268 -2300 2248 0
-2268 -2301 2249 0
-2268 -2302 2250 0
-2269 -2285 2234 0
-2269 -2286 2235 0
-2269 -2287 2236 0
-2269 -2288 2237 0
-2269 -2289 2238 0
-2269 -2290 2239 0
-2269 -2291 2240 0
-2269 -2292 2241 0
-2269 -2293 2242 0
-2269 -2294 2243 0
-2269 -2295 2244 0
-2269 -2296 2245 0
-2269 -2297 2246 0
-2269 -2298 2247 0
-2269 -2299 2248 0
-2269 -2300 2249 0
-2269 -2301 2250 0
-2269 -2302 2251 0
-2270 -2285 2235 0
-2270 -2286 2236 0
-2270 -2287 2237 0
-2270 -2288 2238 0
-2270 -2289 2239 0
-2270 -2290 2240 0
-2270 -2291 2241 0
-2270 -2292 2242 0
-2270 -2293 2243 0
-2270 -2294 2244 0
-2270 -2295 2245 0
-2270 -2296 2246 0
-2270 -2297 2247 0
-2270 -2298 2248 0
-2270 -2299 2249 0
-2270 -2300 2250 0
-2270 -2301 2251 0
-2270 -2302 2252 0
-2271 -2285 2236 0
-2271 -2286 2237 0
-2271 -2287 2238 0
-2271 -2288 2239 0
-2271 -2289 2240 0
-2271 -2290 2241 0
-2271 -2291 2242 0
-2271 -2292 2243 0
-2271 -2293 2244 0
-2271 -2294 2245 0
-2271 -2295 2246 0
-2271 -2296 2247 0
-2271 -2297 2248 0
-2271 -2298 2249 0
-2271 -2299 2250 0
-2271 -2300 2251 0
-2271 -2301 2252 0
-2271 -2302 2253 0
-2272 -2285 2237 0
-2272 -2286 2238 0
-2272 -2287 2239 0
-2272 -2288 2240 0
-2272 -2289 2241 0
-2272 -2290 2242 0
-2272 -2291 2243 0
-2272 -2292 2244 0
-2272 -2293 2245 0
-2272 -2294 2246 0
-2272 -2295 2247 0
-2272 -2296 2248 0
-2272 -2297 2249 0
-2272 -2298 2250 0
-2272 -2299 2251 0
-2272 -2300 2252 0
-2272 -2301 2253 0
-2272 -2302 2254 0
-2273 -2285 2238 0
-2273 -2286 2239 0
-2273 -2287 2240 0
-2273 -2288 2241 0
-2273 -2289 2242 0
-2273 -2290 2243 0
-2273 -2291 2244 0
-2273 -2292 2245 0
-2273 -2293 2246 0
-2273 -2294 2247 0
-2273 -2295 2248 0
-2273 -2296 2249 0
-2273 -2297 2250 0
-2273 -2298 2251 0
-2273 -2299 2252 0
-2273 -2300 2253 0
-2273 -2301 2254 0
-2273 -2302 2255 0
-2274 -2285 2239 0
-2274 -2286 2240 0
-2274 -2287 2241 0
-2274 -2288 2242 0
-2274 -2289 2243 0
-2274 -2290 2244 0
-2274 -2291 2245 0
-2274 -2292 2246 0
-2274 -2293 2247 0
-2274 -2294 2248 0
-2274 -2295 2249 0
-2274 -2296 2250 0
-2274 -2297 2251 0
-2274 -2298 2252 0
-2274 -2299 2253 0
-2274 -2300 2254 0
-2274 -2301 2255 0
-2274 -2302 2256 0
-2275 -2285 2240 0
-2275 -2286 2241 0
-2275 -2287 2242 0
-2275 -2288 2243 0
-2275 -2289 2244 0
-2275 -2290 2245 0
-2275 -2291 2246 0
-2275 -2292 2247 0
-2275 -2293 2248 0
-2275 -2294 2249 0
-2275 -2295 2250 0
-2275 -2296 2251 0
-2275 -2297 2252 0
-2275 -2298 2253 0
-2275 -2299 2254 0
-2275 -2300 2255 0
-2275 -2301 2256 0
-2275 -2302 2257 0
-2276 -2285 2241 0
-2276 -2286 2242 0
-2276 -2287 2243 0
-2276 -2288 2244 0
-2276 -2289 2245 0
-2276 -2290 2246 0
-2276 -2291 2247 0
-2276 -2292 2248 0
-2276 -2293 2249 0
-2276 -2294 2250 0
-2276 -2295 2251 0
-2276 -2296 2252 0
-2276 -2297 2253 0
-2276 -2298 2254 0
-2276 -2299 2255 0
-2276 -2300 2256 0
-2276 -2301 2257 0
-2276 -2302 2258 0
-2277 -2285 2242 0
-2277 -2286 2243 0
-2277 -2287 2244 0
-2277 -2288 2245 0
-2277 -2289 2246 0
-2277 -2290 2247 0
-2277 -2291 2248 0
-2277 -2292 2249 0
-2277 -2293 2250 0
-2277 -2294 2251 0
-2277 -2295 2252 0
-2277 -2296 2253 0
-2277 -2297 2254 0
-2277 -2298 2255 0
-2277 -2299 2256 0
-2277 -2300 2257 0
-2277 -2301 2258 0
-2277 -2302 2259 0
-2278 -2285 2243 0
-2278 -2286 2244 0
-2278 -2287 2245 0
-2278 -2288 2246 0
-2278 -2289 2247 0
-2278 -2290 2248 0
-2278 -2291 2249 0
-2278 -2292 2250 0
-2278 -2293 2251 0
-2278 -2294 2252 0
-2278 -2295 2253 0
-2278 -2296 2254 0
-2278 -2297 2255 0
-2278 -2298 2256 0
-2278 -2299 2257 0
-2278 -2300 2258 0
-2278 -2301 2259 0
-2278 -2302 2260 0
-2279 -2285 2244 0
-2279 -2286 2245 0
-2279 -2287 2246 0
-2279 -2288 2247 0
-2279 -2289 2248 0
-2279 -2290 2249 0
-2279 -2291 2250 0
-2279 -2292 2251 0
-2279 -2293 2252 0
-2279 -2294 2253 0
-2279 -2295 2254 0
-2279 -2296 2255 0
-2279 -2297 2256 0
-2279 -2298 2257 0
-2279 -2299 2258 0
-2279 -2300 2259 0
-2279 -2301 2260 0
-2279 -2302 2261 0
-2280 -2285 2245 0
-2280 -2286 2246 0
-2280 -2287 2247 0
-2280 -2288 2248 0
-2280 -2289 2249 0
-2280 -2290 2250 0
-2280 -2291 2251 0
-2280 -2292 2252 0
-2280 -2293 2253 0
-2280 -2294 2254 0
-2280 -2295 2255 0
-2280 -2296 2256 0
-2280 -2297 2257 0
-2280 -2298 2258 0
-2280 -2299 2259 0
-2280 -2300 2260 0
-2280 -2301 2261 0
-2280 -2302 2262 0
-2281 -2285 2246 0
-2281 -2286 2247 0
-2281 -2287 2248 0
-2281 -2288 2249 0
-2281 -2289 2250 0
-2281 -2290 2251 0
-2281 -2291 2252 0
-2281 -2292 2253 0
-2281 -2293 2254 0
-2281 -2294 2255 0
-2281 -2295 2256 0
-2281 -2296 2257 0
-2281 -2297 2258 0
-2281 -2298 2259 0
-2281 -2299 2260 0
-2281 -2300 2261 0
-2281 -2301 2262 0
-2281 -2302 2263 0
-2282 -2285 2247 0
-2282 -2286 2248 0
-2282 -2287 2249 0
-2282 -2288 2250 0
-2282 -2289 2251 0
-2282 -2290 2252 0
-2282 -2291 2253 0
-2282 -2292 2254 0
-2282 -2293 2255 0
-2282 -2294 2256 0
-2282 -2295 2257 0
-2282 -2296 2258 0
-2282 -2297 2259 0
-2282 -2298 2260 0
-2282 -2299 2261 0
-2282 -2300 2262 0
-2282 -2301 2263 0
-2282 -2302 2264 0
-2283 -2285 2248 0
-2283 -2286 2249 0
-2283 -2287 2250 0
-2283 -2288 2251 0
-2283 -2289 2252 0
-2283 -2290 2253 0
-2283 -2291 2254 0
-2283 -2292 2255 0
-2283 -2293 2256 0
-2283 -2294 2257 0
-2283 -2295 2258 0
-2283 -2296 2259 0
-2283 -2297 2260 0
-2283 -2298 2261 0
-2283 -2299 2262 0
-2283 -2300 2263 0
-2283 -2301 2264 0
-2283 -2302 2265 0
-2284 -2285 2249 0
-2284 -2286 2250 0
-2284 -2287 2251 0
-2284 -2288 2252 0
-2284 -2289 2253 0
-2284 -2290 2254 0
-2284 -2291 2255 0
-2284 -2292 2256 0
-2284 -2293 2257 0
-2284 -2294 2258 0
-2284 -2295 2259 0
-2284 -2296 2260 0
-2284 -2297 2261 0
-2284 -2298 2262 0
-2284 -2299 2263 0
-2284 -2300 2264 0
-2284 -2301 2265 0
-2284 -2302 2266 0
-2312 2285 0
-2313 2286 0
-2314 2287 0
-2315 2288 0
-2316 2289 0
-2317 2290 0
-2318 2291 0
-2319 2292 0
-2320 2293 0
-2303 2285 0
-2304 2286 0
-2305 2287 0
-2306 2288 0
-2307 2289 0
-2308 2290 0
-2309 2291 0
-2310 2292 0
-2311 2293 0
-2303 -2312 2286 0
-2303 -2313 2287 0
-2303 -2314 2288 0
-2303 -2315 2289 0
-2303 -2316 2290 0
-2303 -2317 2291 0
-2303 -2318 2292 0
-2303 -2319 2293 0
-2303 -2320 2294 0
-2304 -2312 2287 0
-2304 -2313 2288 0
-2304 -2314 2289 0
-2304 -2315 2290 0
-2304 -2316 2291 0
-2304 -2317 2292 0
-2304 -2318 2293 0
-2304 -2319 2294 0
-2304 -2320 2295 0
-2305 -2312 2288 0
-2305 -2313 2289 0
-2305 -2314 2290 0
-2305 -2315 2291 0
-2305 -2316 2292 0
-2305 -2317 2293 0
-2305 -2318 2294 0
-2305 -2319 2295 0
-2305 -2320 2296 0
-2306 -2312 2289 0
-2306 -2313 2290 0
-2306 -2314 2291 0
-2306 -2315 2292 0
-2306 -2316 2293 0
-2306 -2317 2294 0
-2306 -2318 2295 0
-2306 -2319 2296 0
-2306 -2320 2297 0
-2307 -2312 2290 0
-2307 -2313 2291 0
-2307 -2314 2292 0
-2307 -2315 2293 0
-2307 -2316 2294 0
-2307 -2317 2295 0
-2307 -2318 2296 0
-2307 -2319 2297 0
-2307 -2320 2298 0
-2308 -2312 2291 0
-2308 -2313 2292 0
-2308 -2314 2293 0
-2308 -2315 2294 0
-2308 -2316 2295 0
-2308 -2317 2296 0
-2308 -2318 2297 0
-2308 -2319 2298 0
-2308 -2320 2299 0
-2309 -2312 2292 0
-2309 -2313 2293 0
-2309 -2314 2294 0
-2309 -2315 2295 0
-2309 -2316 2296 0
-2309 -2317 2297 0
-2309 -2318 2298 0
-2309 -2319 2299 0
-2309 -2320 2300 0
-2310 -2312 2293 0
-2310 -2313 2294 0
-2310 -2314 2295 0
-2310 -2315 2296 0
-2310 -2316 2297 0
-2310 -2317 2298 0
-2310 -2318 2299 0
-2310 -2319 2300 0
-2310 -2320 2301 0
-2311 -2312 2294 0
-2311 -2313 2295 0
-2311 -2314 2296 0
-2311 -2315 2297 0
-2311 -2316 2298 0
-2311 -2317 2299 0
-2311 -2318 2300 0
-2311 -2319 2301 0
-2311 -2320 2302 0
-2326 2312 0
-2327 2313 0
-2328 2314 0
-2329 2315 0
-2321 2312 0
-2322 2313 0
-2323 2314 0
-2324 2315 0
-2325 2316 0
-2321 -2326 2313 0
-2321 -2327 2314 0
-2321 -2328 2315 0
-2321 -2329 2316 0
-2322 -2326 2314 0
-2322 -2327 2315 0
-2322 -2328 2316 0
-2322 -2329 2317 0
-2323 -2326 2315 0
-2323 -2327 2316 0
-2323 -2328 2317 0
-2323 -2329 2318 0
-2324 -2326 2316 0
-2324 -2327 2317 0
-2324 -2328 2318 0
-2324 -2329 2319 0
-2325 -2326 2317 0
-2325 -2327 2318 0
-2325 -2328 2319 0
-2325 -2329 2320 0
-2332 2326 0
-2333 2327 0
-2330 2326 0
-2331 2327 0
-2330 -2332 2327 0
-2330 -2333 2328 0
-2331 -2332 2328 0
-2331 -2333 2329 0
-2230 2332 0
-2229 2332 0
-2229 -2230 2333 0
-2226 2330 0
-2225 2330 0
-2225 -2226 2331 0
-2337 2321 0
-2338 2322 0
-2334 2321 0
-2335 2322 0
-2336 2323 0
-2334 -2337 2322 0
-2334 -2338 2323 0
-2335 -2337 2323 0
-2335 -2338 2324 0
-2336 -2337 2324 0
-2336 -2338 2325 0
-2222 2337 0
-2221 2337 0
-2221 -2222 2338 0
-2218 2334 0
-2339 2334 0
-2340 2335 0
-2339 -2218 2335 0
-2340 -2218 2336 0
-2217 2339 0
-2214 2339 0
-2214 -2217 2340 0
-2346 2303 0
-2347 2304 0
-2348 2305 0
-2349 2306 0
-2341 2303 0
-2342 2304 0
-2343 2305 0
-2344 2306 0
-2345 2307 0
-2341 -2346 2304 0
-2341 -2347 2305 0
-2341 -2348 2306 0
-2341 -2349 2307 0
-2342 -2346 2305 0
-2342 -2347 2306 0
-2342 -2348 2307 0
-2342 -2349 2308 0
-2343 -2346 2306 0
-2343 -2347 2307 0
-2343 -2348 2308 0
-2343 -2349 2309 0
-2344 -2346 2307 0
-2344 -2347 2308 0
-2344 -2348 2309 0
-2344 -2349 2310 0
-2345 -2346 2308 0
-2345 -2347 2309 0
-2345 -2348 2310 0
-2345 -2349 2311 0
-2352 2346 0
-2353 2347 0
-2350 2346 0
-2351 2347 0
-2350 -2352 2347 0
-2350 -2353 2348 0
-2351 -2352 2348 0
-2351 -2353 2349 0
-2213 2352 0
-2210 2352 0
-2210 -2213 2353 0
-2209 2350 0
-2206 2350 0
-2206 -2209 2351 0
-2357 2341 0
-2358 2342 0
-2354 2341 0
-2355 2342 0
-2356 2343 0
-2354 -2357 2342 0
-2354 -2358 2343 0
-2355 -2357 2343 0
-2355 -2358 2344 0
-2356 -2357 2344 0
-2356 -2358 2345 0
-2205 2357 0
-2202 2357 0
-2202 -2205 2358 0
-2201 2354 0
-2359 2354 0
-2360 2355 0
-2359 -2201 2355 0
-2360 -2201 2356 0
-2198 2359 0
-2197 2359 0
-2197 -2198 2360 0
-2370 2267 0
-2371 2268 0
-2372 2269 0
-2373 2270 0
-2374 2271 0
-2375 2272 0
-2376 2273 0
-2377 2274 0
-2378 2275 0
-2361 2267 0
-2362 2268 0
-2363 2269 0
-2364 2270 0
-2365 2271 0
-2366 2272 0
-2367 2273 0
-2368 2274 0
-2369 2275 0
-2361 -2370 2268 0
-2361 -2371 2269 0
-2361 -2372 2270 0
-2361 -2373 2271 0
-2361 -2374 2272 0
-2361 -2375 2273 0
-2361 -2376 2274 0
-2361 -2377 2275 0
-2361 -2378 2276 0
-2362 -2370 2269 0
-2362 -2371 2270 0
-2362 -2372 2271 0
-2362 -2373 2272 0
-2362 -2374 2273 0
-2362 -2375 2274 0
-2362 -2376 2275 0
-2362 -2377 2276 0
-2362 -2378 2277 0
-2363 -2370 2270 0
-2363 -2371 2271 0
-2363 -2372 2272 0
-2363 -2373 2273 0
-2363 -2374 2274 0
-2363 -2375 2275 0
-2363 -2376 2276 0
-2363 -2377 2277 0
-2363 -2378 2278 0
-2364 -2370 2271 0
-2364 -2371 2272 0
-2364 -2372 2273 0
-2364 -2373 2274 0
-2364 -2374 2275 0
-2364 -2375 2276 0
-2364 -2376 2277 0
-2364 -2377 2278 0
-2364 -2378 2279 0
-2365 -2370 2272 0
-2365 -2371 2273 0
-2365 -2372 2274 0
-2365 -2373 2275 0
-2365 -2374 2276 0
-2365 -2375 2277 0
-2365 -2376 2278 0
-2365 -2377 2279 0
-2365 -2378 2280 0
-2366 -2370 2273 0
-2366 -2371 2274 0
-2366 -2372 2275 0
-2366 -2373 2276 0
-2366 -2374 2277 0
-2366 -2375 2278 0
-2366 -2376 2279 0
-2366 -2377 2280 0
-2366 -2378 2281 0
-2367 -2370 2274 0
-2367 -2371 2275 0
-2367 -2372 2276 0
-2367 -2373 2277 0
-2367 -2374 2278 0
-2367 -2375 2279 0
-2367 -2376 2280 0
-2367 -2377 2281 0
-2367 -2378 2282 0
-2368 -2370 2275 0
-2368 -2371 2276 0
-2368 -2372 2277 0
-2368 -2373 2278 0
-2368 -2374 2279 0
-2368 -2375 2280 0
-2368 -2376 2281 0
-2368 -2377 2282 0
-2368 -2378 2283 0
-2369 -2370 2276 0
-2369 -2371 2277 0
-2369 -2372 2278 0
-2369 -2373 2279 0
-2369 -2374 2280 0
-2369 -2375 2281 0
-2369 -2376 2282 0
-2369 -2377 2283 0
-2369 -2378 2284 0
-2384 2370 0
-2385 2371 0
-2386 2372 0
-2387 2373 0
-2379 2370 0
-2380 2371 0
-2381 2372 0
-2382 2373 0
-2383 2374 0
-2379 -2384 2371 0
-2379 -2385 2372 0
-2379 -2386 2373 0
-2379 -2387 2374 0
-2380 -2384 2372 0
-2380 -2385 2373 0
-2380 -2386 2374 0
-2380 -2387 2375 0
-2381 -2384 2373 0
-2381 -2385 2374 0
-2381 -2386 2375 0
-2381 -2387 2376 0
-2382 -2384 2374 0
-2382 -2385 2375 0
-2382 -2386 2376 0
-2382 -2387 2377 0
-2383 -2384 2375 0
-2383 -2385 2376 0
-2383 -2386 2377 0
-2383 -2387 2378 0
-2390 2384 0
-2391 2385 0
-2388 2384 0
-2389 2385 0
-2388 -2390 2385 0
-2388 -2391 2386 0
-2389 -2390 2386 0
-2389 -2391 2387 0
2228 2390 0
2227 2390 0
2227 2228 2391 0
2224 2388 0
2223 2388 0
2223 2224 2389 0
-2395 2379 0
-2396 2380 0
-2392 2379 0
-2393 2380 0
-2394 2381 0
-2392 -2395 2380 0
-2392 -2396 2381 0
-2393 -2395 2381 0
-2393 -2396 2382 0
-2394 -2395 2382 0
-2394 -2396 2383 0
2220 2395 0
2219 2395 0
2219 2220 2396 0
2216 2392 0
-2397 2392 0
-2398 2393 0
-2397 2216 2393 0
-2398 2216 2394 0
2215 2397 0
2212 2397 0
2212 2215 2398 0
-2404 2361 0
-2405 2362 0
-2406 2363 0
-2407 2364 0
-2399 2361 0
-2400 2362 0
-2401 2363 0
-2402 2364 0
-2403 2365 0
-2399 -2404 2362 0
-2399 -2405 2363 0
-2399 -2406 2364 0
-2399 -2407 2365 0
-2400 -2404 2363 0
-2400 -2405 2364 0
-2400 -2406 2365 0
-2400 -2407 2366 0
-2401 -2404 2364 0
-2401 -2405 2365 0
-2401 -2406 2366 0
-2401 -2407 2367 0
-2402 -2404 2365 0
-2402 -2405 2366 0
-2402 -2406 2367 0
-2402 -2407 2368 0
-2403 -2404 2366 0
-2403 -2405 2367 0
-2403 -2406 2368 0
-2403 -2407 2369 0
-2410 2404 0
-2411 2405 0
-2408 2404 0
-2409 2405 0
-2408 -2410 2405 0
-2408 -2411 2406 0
-2409 -2410 2406 0
-2409 -2411 2407 0
2211 2410 0
2208 2410 0
2208 2211 2411 0
2207 2408 0
2204 2408 0
2204 2207 2409 0
-2415 2399 0
-2416 2400 0
-2412 2399 0
-2413 2400 0
-2414 2401 0
-2412 -2415 2400 0
-2412 -2416 2401 0
-2413 -2415 2401 0
-2413 -2416 2402 0
-2414 -2415 2402 0
-2414 -2416 2403 0
2203 2415 0
2200 2415 0
2200 2203 2416 0
2199 2412 0
-2417 2412 0
-2418 2413 0
-2417 2199 2413 0
-2418 2199 2414 0
2196 2417 0
2195 2417 0
2195 2196 2418 0
-2250 0
-2473 2419 0
-2474 2420 0
-2475 2421 0
-2476 2422 0
-2477 2423 0
-2478 2424 0
-2479 2425 0
-2480 2426 0
-2481 2427 0
-2482 2428 0
-2483 2429 0
-2484 2430 0
-2485 2431 0
-2486 2432 0
-2487 2433 0
-2488 2434 0
-2489 2435 0
-2490 2436 0
-2455 2419 0
-2456 2420 0
-2457 2421 0
-2458 2422 0
-2459 2423 0
-2460 2424 0
-2461 2425 0
-2462 2426 0
-2463 2427 0
-2464 2428 0
-2465 2429 0
-2466 2430 0
-2467 2431 0
-2468 2432 0
-2469 2433 0
-2470 2434 0
-2471 2435 0
-2472 2436 0
-2455 -2473 2420 0
-2455 -2474 2421 0
-2455 -2475 2422 0
-2455 -2476 2423 0
-2455 -2477 2424 0
-2455 -2478 2425 0
-2455 -2479 2426 0
-2455 -2480 2427 0
-2455 -2481 2428 0
-2455 -2482 2429 0
-2455 -2483 2430 0
-2455 -2484 2431 0
-2455 -2485 2432 0
-2455 -2486 2433 0
-2455 -2487 2434 0
-2455 -2488 2435 0
-2455 -2489 2436 0
-2455 -2490 2437 0
-2456 -2473 2421 0
-2456 -2474 2422 0
-2456 -2475 2423 0
-2456 -2476 2424 0
-2456 -2477 2425 0
-2456 -2478 2426 0
-2456 -2479 2427 0
-2456 -2480 2428 0
-2456 -2481 2429 0
-2456 -2482 2430 0
-2456 -2483 2431 0
-2456 -2484 2432 0
-2456 -2485 2433 0
-2456 -2486 2434 0
-2456 -2487 2435 0
-2456 -2488 2436 0
-2456 -2489 2437 0
-2456 -2490 2438 0
-2457 -2473 2422 0
-2457 -2474 2423 0
-2457 -2475 2424 0
-2457 -2476 2425 0
-2457 -2477 2426 0
-2457 -2478 2427 0
-2457 -2479 2428 0
-2457 -2480 2429 0
-2457 -2481 2430 0
-2457 -2482 2431 0
-2457 -2483 2432 0
-2457 -2484 2433 0
-2457 -2485 2434 0
-2457 -2486 2435 0
-2457 -2487 2436 0
-2457 -2488 2437 0
-2457 -2489 2438 0
-2457 -2490 2439 0
-2458 -2473 2423 0
-2458 -2474 2424 0
-2458 -2475 2425 0
-2458 -2476 2426 0
-2458 -2477 2427 0
-2458 -2478 2428 0
-2458 -2479 2429 0
-2458 -2480 2430 0
-2458 -2481 2431 0
-2458 -2482 2432 0
-2458 -2483 2433 0
-2458 -2484 2434 0
-2458 -2485 2435 0
-2458 -2486 2436 0
-2458 -2487 2437 0
-2458 -2488 2438 0
-2458 -2489 2439 0
-2458 -2490 2440 0
-2459 -2473 2424 0
-2459 -2474 2425 0
-2459 -2475 2426 0
-2459 -2476 2427 0
-2459 -2477 2428 0
-2459 -2478 2429 0
-2459 -2479 2430 0
-2459 -2480 2431 0
-2459 -2481 2432 0
-2459 -2482 2433 0
-2459 -2483 2434 0
-2459 -2484 2435 0
-2459 -2485 2436 0
-2459 -2486 2437 0
-2459 -2487 2438 0
-2459 -2488 2439 0
-2459 -2489 2440 0
-2459 -2490 2441 0
-2460 -2473 2425 0
-2460 -2474 2426 0
-2460 -2475 2427 0
-2460 -2476 2428 0
-2460 -2477 2429 0
-2460 -2478 2430 0
-2460 -2479 2431 0
-2460 -2480 2432 0
-2460 -2481 2433 0
-2460 -2482 2434 0
-2460 -2483 2435 0
-2460 -2484 2436 0
-2460 -2485 2437 0
-2460 -2486 2438 0
-2460 -2487 2439 0
-2460 -2488 2440 0
-2460 -2489 2441 0
-2460 -2490 2442 0
-2461 -2473 2426 0
-2461 -2474 2427 0
-2461 -2475 2428 0
-2461 -2476 2429 0
-2461 -2477 2430 0
-2461 -2478 2431 0
-2461 -2479 2432 0
-2461 -2480 2433 0
-2461 -2481 2434 0
-2461 -2482 2435 0
-2461 -2483 2436 0
-2461 -2484 2437 0
-2461 -2485 2438 0
-2461 -2486 2439 0
-2461 -2487 2440 0
-2461 -2488 2441 0
-2461 -2489 2442 0
-2461 -2490 2443 0
-2462 -2473 2427 0
-2462 -2474 2428 0
-2462 -2475 2429 0
-2462 -2476 2430 0
-2462 -2477 2431 0
-2462 -2478 2432 0
-2462 -2479 2433 0
-2462 -2480 2434 0
-2462 -2481 2435 0
-2462 -2482 2436 0
-2462 -2483 2437 0
-2462 -2484 2438 0
-2462 -2485 2439 0
-2462 -2486 2440 0
-2462 -2487 2441 0
-2462 -2488 2442 0
-2462 -2489 2443 0
-2462 -2490 2444 0
-2463 -2473 2428 0
-2463 -2474 2429 0
-2463 -2475 2430 0
-2463 -2476 2431 0
-2463 -2477 2432 0
-2463 -2478 2433 0
-2463 -2479 2434 0
-2463 -2480 2435 0
-2463 -2481 2436 0
-2463 -2482 2437 0
-2463 -2483 2438 0
-2463 -2484 2439 0
-2463 -2485 2440 0
-2463 -2486 2441 0
-2463 -2487 2442 0
-2463 -2488 2443 0
-2463 -2489 2444 0
-2463 -2490 2445 0
-2464 -2473 2429 0
-2464 -2474 2430 0
-2464 -2475 2431 0
-2464 -2476 2432 0
-2464 -2477 2433 0
-2464 -2478 2434 0
-2464 -2479 2435 0
-2464 -2480 2436 0
-2464 -2481 2437 0
-2464 -2482 2438 0
-2464 -2483 2439 0
-2464 -2484 2440 0
-2464 -2485 2441 0
-2464 -2486 2442 0
-2464 -2487 2443 0
-2464 -2488 2444 0
-2464 -2489 2445 0
-2464 -2490 2446 0
-2465 -2473 2430 0
-2465 -2474 2431 0
-2465 -2475 2432 0
-2465 -2476 2433 0
-2465 -2477 2434 0
-2465 -2478 2435 0
-2465 -2479 2436 0
-2465 -2480 2437 0
-2465 -2481 2438 0
-2465 -2482 2439 0
-2465 -2483 2440 0
-2465 -2484 2441 0
-2465 -2485 2442 0
-2465 -2486 2443 0
-2465 -2487 2444 0
-2465 -2488 2445 0
-2465 -2489 2446 0
-2465 -2490 2447 0
-2466 -2473 2431 0
-2466 -2474 2432 0
-2466 -2475 2433 0
-2466 -2476 2434 0
-2466 -2477 2435 0
-2466 -2478 2436 0
-2466 -2479 2437 0
-2466 -2480 2438 0
-2466 -2481 2439 0
-2466 -2482 2440 0
-2466 -2483 2441 0
-2466 -2484 2442 0
-2466 -2485 2443 0
-2466 -2486 2444 0
-2466 -2487 2445 0
-2466 -2488 2446 0
-2466 -2489 2447 0
-2466 -2490 2448 0
-2467 -2473 2432 0
-2467 -2474 2433 0
-2467 -2475 2434 0
-2467 -2476 2435 0
-2467 -2477 2436 0
-2467 -2478 2437 0
-2467 -2479 2438 0
-2467 -2480 2439 0
-2467 -2481 2440 0
-2467 -2482 2441 0
-2467 -2483 2442 0
-2467 -2484 2443 0
-2467 -2485 2444 0
-2467 -2486 2445 0
-2467 -2487 2446 0
-2467 -2488 2447 0
-2467 -2489 2448 0
-2467 -2490 2449 0
-2468 -2473 2433 0
-2468 -2474 2434 0
-2468 -2475 2435 0
-2468 -2476 2436 0
-2468 -2477 2437 0
-2468 -2478 2438 0
-2468 -2479 2439 0
-2468 -2480 2440 0
-2468 -2481 2441 0
-2468 -2482 2442 0
-2468 -2483 2443 0
-2468 -2484 2444 0
-2468 -2485 2445 0
-2468 -2486 2446 0
-2468 -2487 2447 0
-2468 -2488 2448 0
-2468 -2489 2449 0
-2468 -2490 2450 0
-2469 -2473 2434 0
-2469 -2474 2435 0
-2469 -2475 2436 0
-2469 -2476 2437 0
-2469 -2477 2438 0
-2469 -2478 2439 0
-2469 -2479 2440 0
-2469 -2480 2441 0
-2469 -2481 2442 0
-2469 -2482 2443 0
-2469 -2483 2444 0
-2469 -2484 2445 0
-2469 -2485 2446 0
-2469 -2486 2447 0
-2469 -2487 2448 0
-2469 -2488 2449 0
-2469 -2489 2450 0
-2469 -2490 2451 0
-2470 -2473 2435 0
-2470 -2474 2436 0
-2470 -2475 2437 0
-2470 -2476 2438 0
-2470 -2477 2439 0
-2470 -2478 2440 0
-2470 -2479 2441 0
-2470 -2480 2442 0
-2470 -2481 2443 0
-2470 -2482 2444 0
-2470 -2483 2445 0
-2470 -2484 2446 0
-2470 -2485 2447 0
-2470 -2486 2448 0
-2470 -2487 2449 0
-2470 -2488 2450 0
-2470 -2489 2451 0
-2470 -2490 2452 0
-2471 -2473 2436 0
-2471 -2474 2437 0
-2471 -2475 2438 0
-2471 -2476 2439 0
-2471 -2477 2440 0
-2471 -2478 2441 0
-2471 -2479 2442 0
-2471 -2480 2443 0
-2471 -2481 2444 0
-2471 -2482 2445 0
-2471 -2483 2446 0
-2471 -2484 2447 0
-2471 -2485 2448 0
-2471 -2486 2449 0
-2471 -2487 2450 0
-2471 -2488 2451 0
-2471 -2489 2452 0
-2471 -2490 2453 0
-2472 -2473 2437 0
-2472 -2474 2438 0
-2472 -2475 2439 0
-2472 -2476 2440 0
-2472 -2477 2441 0
-2472 -2478 2442 0
-2472 -2479 2443 0
-2472 -2480 2444 0
-2472 -2481 2445 0
-2472 -2482 2446 0
-2472 -2483 2447 0
-2472 -2484 2448 0
-2472 -2485 2449 0
-2472 -2486 2450 0
-2472 -2487 2451 0
-2472 -2488 2452 0
-2472 -2489 2453 0
-2472 -2490 2454 0
-2500 2473 0
-2501 2474 0
-2502 2475 0
-2503 2476 0
-2504 2477 0
-2505 2478 0
-2506 2479 0
-2507 2480 0
-2508 2481 0
-2491 2473 0
-2492 2474 0
-2493 2475 0
-2494 2476 0
-2495 2477 0
-2496 2478 0
-2497 2479 0
-2498 2480 0
-2499 2481 0
-2491 -2500 2474 0
-2491 -2501 2475 0
-2491 -2502 2476 0
-2491 -2503 2477 0
-2491 -2504 2478 0
-2491 -2505 2479 0
-2491 -2506 2480 0
-2491 -2507 2481 0
-2491 -2508 2482 0
-2492 -2500 2475 0
-2492 -2501 2476 0
-2492 -2502 2477 0
-2492 -2503 2478 0
-2492 -2504 2479 0
-2492 -2505 2480 0
-2492 -2506 2481 0
-2492 -2507 2482 0
-2492 -2508 2483 0
-2493 -2500 2476 0
-2493 -2501 2477 0
-2493 -2502 2478 0
-2493 -2503 2479 0
-2493 -2504 2480 0
-2493 -2505 2481 0
-2493 -2506 2482 0
-2493 -2507 2483 0
-2493 -2508 2484 0
-2494 -2500 2477 0
-2494 -2501 2478 0
-2494 -2502 2479 0
-2494 -2503 2480 0
-2494 -2504 2481 0
-2494 -2505 2482 0
-2494 -2506 2483 0
-2494 -2507 2484 0
-2494 -2508 2485 0
-2495 -2500 2478 0
-2495 -2501 2479 0
-2495 -2502 2480 0
-2495 -2503 2481 0
-2495 -2504 2482 0
-2495 -2505 2483 0
-2495 -2506 2484 0
-2495 -2507 2485 0
-2495 -2508 2486 0
-2496 -2500 2479 0
-2496 -2501 2480 0
-2496 -2502 2481 0
-2496 -2503 2482 0
-2496 -2504 2483 0
-2496 -2505 2484 0
-2496 -2506 2485 0
-2496 -2507 2486 0
-2496 -2508 2487 0
-2497 -2500 2480 0
-2497 -2501 2481 0
-2497 -2502 2482 0
-2497 -2503 2483 0
-2497 -2504 2484 0
-2497 -2505 2485 0
-2497 -2506 2486 0
-2497 -2507 2487 0
-2497 -2508 2488 0
-2498 -2500 2481 0
-2498 -2501 2482 0
-2498 -2502 2483 0
-2498 -2503 2484 0
-2498 -2504 2485 0
-2498 -2505 2486 0
-2498 -2506 2487 0
-2498 -2507 2488 0
-2498 -2508 2489 0
-2499 -2500 2482 0
-2499 -2501 2483 0
-2499 -2502 2484 0
-2499 -2503 2485 0
-2499 -2504 2486 0
-2499 -2505 2487 0
-2499 -2506 2488 0
-2499 -2507 2489 0
-2499 -2508 2490 0
-2514 2500 0
-2515 2501 0
-2516 2502 0
-2517 2503 0
-2509 2500 0
-2510 2501 0
-2511 2502 0
-2512 2503 0
-2513 2504 0
-2509 -2514 2501 0
-2509 -2515 2502 0
-2509 -2516 2503 0
-2509 -2517 2504 0
-2510 -2514 2502 0
-2510 -2515 2503 0
-2510 -2516 2504 0
-2510 -2517 2505 0
-2511 -2514 2503 0
-2511 -2515 2504 0
-2511 -2516 2505 0
-2511 -2517 2506 0
-2512 -2514 2504 0
-2512 -2515 2505 0
-2512 -2516 2506 0
-2512 -2517 2507 0
-2513 -2514 2505 0
-2513 -2515 2506 0
-2513 -2516 2507 0
-2513 -2517 2508 0
-2520 2514 0
-2521 2515 0
-2518 2514 0
-2519 2515 0
-2518 -2520 2515 0
-2518 -2521 2516 0
-2519 -2520 2516 0
-2519 -2521 2517 0
2230 2520 0
2229 2520 0
2229 2230 2521 0
2226 2518 0
2225 2518 0
2225 2226 2519 0
-2525 2509 0
-2526 2510 0
-2522 2509 0
-2523 2510 0
-2524 2511 0
-2522 -2525 2510 0
-2522 -2526 2511 0
-2523 -2525 2511 0
-2523 -2526 2512 0
-2524 -2525 2512 0
-2524 -2526 2513 0
2222 2525 0
2221 2525 0
2221 2222 2526 0
2218 2522 0
-2527 2522 0
-2528 2523 0
-2527 2218 2523 0
-2528 2218 2524 0
2217 2527 0
2214 2527 0
2214 2217 2528 0
-2534 2491 0
-2535 2492 0
-2536 2493 0
-2537 2494 0
-2529 2491 0
-2530 2492 0
-2531 2493 0
-2532 2494 0
-2533 2495 0
-2529 -2534 2492 0
-2529 -2535 2493 0
-2529 -2536 2494 0
-2529 -2537 2495 0
-2530 -2534 2493 0
-2530 -2535 2494 0
-2530 -2536 2495 0
-2530 -2537 2496 0
-2531 -2534 2494 0
-2531 -2535 2495 0
-2531 -2536 2496 0
-2531 -2537 2497 0
-2532 -2534 2495 0
-2532 -2535 2496 0
-2532 -2536 2497 0
-2532 -2537 2498 0
-2533 -2534 2496 0
-2533 -2535 2497 0
-2533 -2536 2498 0
-2533 -2537 2499 0
-2540 2534 0
-2541 2535 0
-2538 2534 0
-2539 2535 0
-2538 -2540 2535 0
-2538 -2541 2536 0
-2539 -2540 2536 0
-2539 -2541 2537 0
2213 2540 0
2210 2540 0
2210 2213 2541 0
2209 2538 0
2206 2538 0
2206 2209 2539 0
-2545 2529 0
-2546 2530 0
-2542 2529 0
-2543 2530 0
-2544 2531 0
-2542 -2545 2530 0
-2542 -2546 2531 0
-2543 -2545 2531 0
-2543 -2546 2532 0
-2544 -2545 2532 0
-2544 -2546 2533 0
2205 2545 0
2202 2545 0
2202 2205 2546 0
2201 2542 0
-2547 2542 0
-2548 2543 0
-2547 2201 2543 0
-2548 2201 2544 0
2198 2547 0
2197 2547 0
2197 2198 2548 0
-2558 2455 0
-2559 2456 0
-2560 2457 0
-2561 2458 0
-2562 2459 0
-2563 2460 0
-2564 2461 0
-2565 2462 0
-2566 2463 0
-2549 2455 0
-2550 2456 0
-2551 2457 0
-2552 2458 0
-2553 2459 0
-2554 2460 0
-2555 2461 0
-2556 2462 0
-2557 2463 0
-2549 -2558 2456 0
-2549 -2559 2457 0
-2549 -2560 2458 0
-2549 -2561 2459 0
-2549 -2562 2460 0
-2549 -2563 2461 0
-2549 -2564 2462 0
-2549 -2565 2463 0
-2549 -2566 2464 0
-2550 -2558 2457 0
-2550 -2559 2458 0
-2550 -2560 2459 0
-2550 -2561 2460 0
-2550 -2562 2461 0
-2550 -2563 2462 0
-2550 -2564 2463 0
-2550 -2565 2464 0
-2550 -2566 2465 0
-2551 -2558 2458 0
-2551 -2559 2459 0
-2551 -2560 2460 0
-2551 -2561 2461 0
-2551 -2562 2462 0
-2551 -2563 2463 0
-2551 -2564 2464 0
-2551 -2565 2465 0
-2551 -2566 2466 0
-2552 -2558 2459 0
-2552 -2559 2460 0
-2552 -2560 2461 0
-2552 -2561 2462 0
-2552 -2562 2463 0
-2552 -2563 2464 0
-2552 -2564 2465 0
-2552 -2565 2466 0
-2552 -2566 2467 0
-2553 -2558 2460 0
-2553 -2559 2461 0
-2553 -2560 2462 0
-2553 -2561 2463 0
-2553 -2562 2464 0
-2553 -2563 2465 0
-2553 -2564 2466 0
-2553 -2565 2467 0
-2553 -2566 2468 0
-2554 -2558 2461 0
-2554 -2559 2462 0
-2554 -2560 2463 0
-2554 -2561 2464 0
-2554 -2562 2465 0
-2554 -2563 2466 0
-2554 -2564 2467 0
-2554 -2565 2468 0
-2554 -2566 2469 0
-2555 -2558 2462 0
-2555 -2559 2463 0
-2555 -2560 2464 0
-2555 -2561 2465 0
-2555 -2562 2466 0
-2555 -2563 2467 0
-2555 -2564 2468 0
-2555 -2565 2469 0
-2555 -2566 2470 0
-2556 -2558 2463 0
-2556 -2559 2464 0
-2556 -2560 2465 0
-2556 -2561 2466 0
-2556 -2562 2467 0
-2556 -2563 2468 0
-2556 -2564 2469 0
-2556 -2565 2470 0
-2556 -2566 2471 0
-2557 -2558 2464 0
-2557 -2559 2465 0
-2557 -2560 2466 0
-2557 -2561 2467 0
-2557 -2562 2468 0
-2557 -2563 2469 0
-2557 -2564 2470 0
-2557 -2565 2471 0
-2557 -2566 2472 0
-2572 2558 0
-2573 2559 0
-2574 2560 0
-2575 2561 0
-2567 2558 0
-2568 2559 0
-2569 2560 0
-2570 2561 0
-2571 2562 0
-2567 -2572 2559 0
-2567 -2573 2560 0
-2567 -2574 2561 0
-2567 -2575 2562 0
-2568 -2572 2560 0
-2568 -2573 2561 0
-2568 -2574 2562 0
-2568 -2575 2563 0
-2569 -2572 2561 0
-2569 -2573 2562 0
-2569 -2574 2563 0
-2569 -2575 2564 0
-2570 -2572 2562 0
-2570 -2573 2563 0
-2570 -2574 2564 0
-2570 -2575 2565 0
-2571 -2572 2563 0
-2571 -2573 2564 0
-2571 -2574 2565 0
-2571 -2575 2566 0
-2578 2572 0
-2579 2573 0
-2576 2572 0
-2577 2573 0
-2576 -2578 2573 0
-2576 -2579 2574 0
-2577 -2578 2574 0
-2577 -2579 2575 0
-2228 2578 0
-2227 2578 0
-2227 -2228 2579 0
-2224 2576 0
-2223 2576 0
-2223 -2224 2577 0
-2583 2567 0
-2584 2568 0
-2580 2567 0
-2581 2568 0
-2582 2569 0
-2580 -2583 2568 0
-2580 -2584 2569 0
-2581 -2583 2569 0
-2581 -2584 2570 0
-2582 -2583 2570 0
-2582 -2584 2571 0
-2220 2583 0
-2219 2583 0
-2219 -2220 2584 0
-2216 2580 0
-2585 2580 0
-2586 2581 0
-2585 -2216 2581 0
-2586 -2216 2582 0
-2215 2585 0
-2212 2585 0
-2212 -2215 2586 0
-2592 2549 0
-2593 2550 0
-2594 2551 0
-2595 2552 0
-2587 2549 0
-2588 2550 0
-2589 2551 0
-2590 2552 0
-2591 2553 0
-2587 -2592 2550 0
-2587 -2593 2551 0
-2587 -2594 2552 0
-2587 -2595 2553 0
-2588 -2592 2551 0
-2588 -2593 2552 0
-2588 -2594 2553 0
-2588 -2595 2554 0
-2589 -2592 2552 0
-2589 -2593 2553 0
-2589 -2594 2554 0
-2589 -2595 2555 0
-2590 -2592 2553 0
-2590 -2593 2554 0
-2590 -2594 2555 0
-2590 -2595 2556 0
-2591 -2592 2554 0
-2591 -2593 2555 0
-2591 -2594 2556 0
-2591 -2595 2557 0
-2598 2592 0
-2599 2593 0
-2596 2592 0
-2597 2593 0
-2596 -2598 2593 0
-2596 -2599 2594 0
-2597 -2598 2594 0
-2597 -2599 2595 0
-2211 2598 0
-2208 2598 0
-2208 -2211 2599 0
-2207 2596 0
-2204 2596 0
-2204 -2207 2597 0
-2603 2587 0
-2604 2588 0
-2600 2587 0
-2601 2588 0
-2602 2589 0
-2600 -2603 2588 0
-2600 -2604 2589 0
-2601 -2603 2589 0
-2601 -2604 2590 0
-2602 -2603 2590 0
-2602 -2604 2591 0
-2203 2603 0
-2200 2603 0
-2200 -2203 2604 0
-2199 2600 0
-2605 2600 0
-2606 2601 0
-2605 -2199 2601 0
-2606 -2199 2602 0
-2196 2605 0
-2195 2605 0
-2195 -2196 2606 0
-2436 0
-2607 1 0
-2607 6 0
2607 -1 -6 0
-2608 10 0
-2608 15 0
2608 -10 -15 0
-2609 1 0
-2609 15 0
2609 -1 -15 0
-2610 10 0
-2610 6 0
2610 -10 -6 0
-2611 2 0
-2611 4 0
2611 -2 -4 0
-2612 11 0
-2612 13 0
2612 -11 -13 0
-2613 2 0
-2613 13 0
2613 -2 -13 0
-2614 11 0
-2614 4 0
2614 -11 -4 0
-2615 3 0
-2615 5 0
2615 -3 -5 0
-2616 12 0
-2616 14 0
2616 -12 -14 0
-2617 3 0
-2617 14 0
2617 -3 -14 0
-2618 12 0
-2618 5 0
2618 -12 -5 0
-2619 4 0
-2619 9 0
2619 -4 -9 0
-2620 13 0
-2620 18 0
2620 -13 -18 0
-2621 4 0
-2621 18 0
2621 -4 -18 0
-2622 13 0
-2622 9 0
2622 -13 -9 0
-2623 5 0
-2623 7 0
2623 -5 -7 0
-2624 14 0
-2624 16 0
2624 -14 -16 0
-2625 5 0
-2625 16 0
2625 -5 -16 0
-2626 14 0
-2626 7 0
2626 -14 -7 0
-2627 6 0
-2627 8 0
2627 -6 -8 0
-2628 15 0
-2628 17 0
2628 -15 -17 0
-2629 6 0
-2629 17 0
2629 -6 -17 0
-2630 15 0
-2630 8 0
2630 -15 -8 0
-2631 7 0
-2631 3 0
2631 -7 -3 0
-2632 16 0
-2632 12 0
2632 -16 -12 0
-2633 7 0
-2633 12 0
2633 -7 -12 0
-2634 16 0
-2634 3 0
2634 -16 -3 0
-2635 8 0
-2635 1 0
2635 -8 -1 0
-2636 17 0
-2636 10 0
2636 -17 -10 0
-2637 8 0
-2637 10 0
2637 -8 -10 0
-2638 17 0
-2638 1 0
2638 -17 -1 0
-2639 9 0
-2639 2 0
2639 -9 -2 0
-2640 18 0
-2640 11 0
2640 -18 -11 0
-2641 9 0
-2641 11 0
2641 -9 -11 0
-2642 18 0
-2642 2 0
2642 -18 -2 0
-2697 2643 0
-2698 2644 0
-2699 2645 0
-2700 2646 0
-2701 2647 0
-2702 2648 0
-2703 2649 0
-2704 2650 0
-2705 2651 0
-2706 2652 0
-2707 2653 0
-2708 2654 0
-2709 2655 0
-2710 2656 0
-2711 2657 0
-2712 2658 0
-2713 2659 0
-2714 2660 0
-2679 2643 0
-2680 2644 0
-2681 2645 0
-2682 2646 0
-2683 2647 0
-2684 2648 0
-2685 2649 0
-2686 2650 0
-2687 2651 0
-2688 2652 0
-2689 2653 0
-2690 2654 0
-2691 2655 0
-2692 2656 0
-2693 2657 0
-2694 2658 0
-2695 2659 0
-2696 2660 0
-2679 -2697 2644 0
-2679 -2698 2645 0
-2679 -2699 2646 0
-2679 -2700 2647 0
-2679 -2701 2648 0
-2679 -2702 2649 0
-2679 -2703 2650 0
-2679 -2704 2651 0
-2679 -2705 2652 0
-2679 -2706 2653 0
-2679 -2707 2654 0
-2679 -2708 2655 0
-2679 -2709 2656 0
-2679 -2710 2657 0
-2679 -2711 2658 0
-2679 -2712 2659 0
-2679 -2713 2660 0
-2679 -2714 2661 0
-2680 -2697 2645 0
-2680 -2698 2646 0
-2680 -2699 2647 0
-2680 -2700 2648 0
-2680 -2701 2649 0
-2680 -2702 2650 0
-2680 -2703 2651 0
-2680 -2704 2652 0
-2680 -2705 2653 0
-2680 -2706 2654 0
-2680 -2707 2655 0
-2680 -2708 2656 0
-2680 -2709 2657 0
-2680 -2710 2658 0
-2680 -2711 2659 0
-2680 -2712 2660 0
-2680 -2713 2661 0
-2680 -2714 2662 0
-2681 -2697 2646 0
-2681 -2698 2647 0
-2681 -2699 2648 0
-2681 -2700 2649 0
-2681 -2701 2650 0
-2681 -2702 2651 0
-2681 -2703 2652 0
-2681 -2704 2653 0
-2681 -2705 2654 0
-2681 -2706 2655 0
-2681 -2707 2656 0
-2681 -2708 2657 0
-2681 -2709 2658 0
-2681 -2710 2659 0
-2681 -2711 2660 0
-2681 -2712 2661 0
-2681 -2713 2662 0
-2681 -2714 2663 0
-2682 -2697 2647 0
-2682 -2698 2648 0
-2682 -2699 2649 0
-2682 -2700 2650 0
-2682 -2701 2651 0
-2682 -2702 2652 0
-2682 -2703 2653 0
-2682 -2704 2654 0
-2682 -2705 2655 0
-2682 -2706 2656 0
-2682 -2707 2657 0
-2682 -2708 2658 0
-2682 -2709 2659 0
-2682 -2710 2660 0
-2682 -2711 2661 0
-2682 -2712 2662 0
-2682 -2713 2663 0
-2682 -2714 2664 0
-2683 -2697 2648 0
-2683 -2698 2649 0
-2683 -2699 2650 0
-2683 -2700 2651 0
-2683 -2701 2652 0
-2683 -2702 2653 0
-2683 -2703 2654 0
-2683 -2704 2655 0
-2683 -2705 2656 0
-2683 -2706 2657 0
-2683 -2707 2658 0
-2683 -2708 2659 0
-2683 -2709 2660 0
-2683 -2710 2661 0
-2683 -2711 2662 0
-2683 -2712 2663 0
-2683 -2713 2664 0
-2683 -2714 2665 0
-2684 -2697 2649 0
-2684 -2698 2650 0
-2684 -2699 2651 0
-2684 -2700 2652 0
-2684 -2701 2653 0
-2684 -2702 2654 0
-2684 -2703 2655 0
-2684 -2704 2656 0
-2684 -2705 2657 0
-2684 -2706 2658 0
-2684 -2707 2659 0
-2684 -2708 2660 0
-2684 -2709 2661 0
-2684 -2710 2662 0
-2684 -2711 2663 0
-2684 -2712 2664 0
-2684 -2713 2665 0
-2684 -2714 2666 0
-2685 -2697 2650 0
-2685 -2698 2651 0
-2685 -2699 2652 0
-2685 -2700 2653 0
-2685 -2701 2654 0
-2685 -2702 2655 0
-2685 -2703 2656 0
-2685 -2704 2657 0
-2685 -2705 2658 0
-2685 -2706 2659 0
-2685 -2707 2660 0
-2685 -2708 2661 0
-2685 -2709 2662 0
-2685 -2710 2663 0
-2685 -2711 2664 0
-2685 -2712 2665 0
-2685 -2713 2666 0
-2685 -2714 2667 0
-2686 -2697 2651 0
-2686 -2698 2652 0
-2686 -2699 2653 0
-2686 -2700 2654 0
-2686 -2701 2655 0
-2686 -2702 2656 0
-2686 -2703 2657 0
-2686 -2704 2658 0
-2686 -2705 2659 0
-2686 -2706 2660 0
-2686 -2707 2661 0
-2686 -2708 2662 0
-2686 -2709 2663 0
-2686 -2710 2664 0
-2686 -2711 2665 0
-2686 -2712 2666 0
-2686 -2713 2667 0
-2686 -2714 2668 0
-2687 -2697 2652 0
-2687 -2698 2653 0
-2687 -2699 2654 0
-2687 -2700 2655 0
-2687 -2701 2656 0
-2687 -2702 2657 0
-2687 -2703 2658 0
-2687 -2704 2659 0
-2687 -2705 2660 0
-2687 -2706 2661 0
-2687 -2707 2662 0
-2687 -2708 2663 0
-2687 -2709 2664 0
-2687 -2710 2665 0
-2687 -2711 2666 0
-2687 -2712 2667 0
-2687 -2713 2668 0
-2687 -2714 2669 0
-2688 -2697 2653 0
-2688 -2698 2654 0
-2688 -2699 2655 0
-2688 -2700 2656 0
-2688 -2701 2657 0
-2688 -2702 2658 0
-2688 -2703 2659 0
-2688 -2704 2660 0
-2688 -2705 2661 0
-2688 -2706 2662 0
-2688 -2707 2663 0
-2688 -2708 2664 0
-2688 -2709 2665 0
-2688 -2710 2666 0
-2688 -2711 2667 0
-2688 -2712 2668 0
-2688 -2713 2669 0
-2688 -2714 2670 0
-2689 -2697 2654 0
-2689 -2698 2655 0
-2689 -2699 2656 0
-2689 -2700 2657 0
-2689 -2701 2658 0
-2689 -2702 2659 0
-2689 -2703 2660 0
-2689 -2704 2661 0
-2689 -2705 2662 0
-2689 -2706 2663 0
-2689 -2707 2664 0
-2689 -2708 2665 0
-2689 -2709 2666 0
-2689 -2710 2667 0
-2689 -2711 2668 0
-2689 -2712 2669 0
-2689 -2713 2670 0
-2689 -2714 2671 0
-2690 -2697 2655 0
-2690 -2698 2656 0
-2690 -2699 2657 0
-2690 -2700 2658 0
-2690 -2701 2659 0
-2690 -2702 2660 0
-2690 -2703 2661 0
-2690 -2704 2662 0
-2690 -2705 2663 0
-2690 -2706 2664 0
-2690 -2707 2665 0
-2690 -2708 2666 0
-2690 -2709 2667 0
-2690 -2710 2668 0
-2690 -2711 2669 0
-2690 -2712 2670 0
-2690 -2713 2671 0
-2690 -2714 2672 0
-2691 -2697 2656 0
-2691 -2698 2657 0
-2691 -2699 2658 0
-2691 -2700 2659 0
-2691 -2701 2660 0
-2691 -2702 2661 0
-2691 -2703 2662 0
-2691 -2704 2663 0
-2691 -2705 2664 0
-2691 -2706 2665 0
-2691 -2707 2666 0
-2691 -2708 2667 0
-2691 -2709 2668 0
-2691 -2710 2669 0
-2691 -2711 2670 0
-2691 -2712 2671 0
-2691 -2713 2672 0
-2691 -2714 2673 0
-2692 -2697 2657 0
-2692 -2698 2658 0
-2692 -2699 2659 0
-2692 -2700 2660 0
-2692 -2701 2661 0
-2692 -2702 2662 0
-2692 -2703 2663 0
-2692 -2704 2664 0
-2692 -2705 2665 0
-2692 -2706 2666 0
-2692 -2707 2667 0
-2692 -2708 2668 0
-2692 -2709 2669 0
-2692 -2710 2670 0
-2692 -2711 2671 0
-2692 -2712 2672 0
-2692 -2713 2673 0
-2692 -2714 2674 0
-2693 -2697 2658 0
-2693 -2698 2659 0
-2693 -2699 2660 0
-2693 -2700 2661 0
-2693 -2701 2662 0
-2693 -2702 2663 0
-2693 -2703 2664 0
-2693 -2704 2665 0
-2693 -2705 2666 0
-2693 -2706 2667 0
-2693 -2707 2668 0
-2693 -2708 2669 0
-2693 -2709 2670 0
-2693 -2710 2671 0
-2693 -2711 2672 0
-2693 -2712 2673 0
-2693 -2713 2674 0
-2693 -2714 2675 0
-2694 -2697 2659 0
-2694 -2698 2660 0
-2694 -2699 2661 0
-2694 -2700 2662 0
-2694 -2701 2663 0
-2694 -2702 2664 0
-2694 -2703 2665 0
-2694 -2704 2666 0
-2694 -2705 2667 0
-2694 -2706 2668 0
-2694 -2707 2669 0
-2694 -2708 2670 0
-2694 -2709 2671 0
-2694 -2710 2672 0
-2694 -2711 2673 0
-2694 -2712 2674 0
-2694 -2713 2675 0
-2694 -2714 2676 0
-2695 -2697 2660 0
-2695 -2698 2661 0
-2695 -2699 2662 0
-2695 -2700 2663 0
-2695 -2701 2664 0
-2695 -2702 2665 0
-2695 -2703 2666 0
-2695 -2704 2667 0
-2695 -2705 2668 0
-2695 -2706 2669 0
-2695 -2707 2670 0
-2695 -2708 2671 0
-2695 -2709 2672 0
-2695 -2710 2673 0
-2695 -2711 2674 0
-2695 -2712 2675 0
-2695 -2713 2676 0
-2695 -2714 2677 0
-2696 -2697 2661 0
-2696 -2698 2662 0
-2696 -2699 2663 0
-2696 -2700 2664 0
-2696 -2701 2665 0
-2696 -2702 2666 0
-2696 -2703 2667 0
-2696 -2704 2668 0
-2696 -2705 2669 0
-2696 -2706 2670 0
-2696 -2707 2671 0
-2696 -2708 2672 0
-2696 -2709 2673 0
-2696 -2710 2674 0
-2696 -2711 2675 0
-2696 -2712 2676 0
-2696 -2713 2677 0
-2696 -2714 2678 0
-2724 2697 0
-2725 2698 0
-2726 2699 0
-2727 2700 0
-2728 2701 0
-2729 2702 0
-2730 2703 0
-2731 2704 0
-2732 2705 0
-2715 2697 0
-2716 2698 0
-2717 2699 0
-2718 2700 0
-2719 2701 0
-2720 2702 0
-2721 2703 0
-2722 2704 0
-2723 2705 0
-2715 -2724 2698 0
-2715 -2725 2699 0
-2715 -2726 2700 0
-2715 -2727 2701 0
-2715 -2728 2702 0
-2715 -2729 2703 0
-2715 -2730 2704 0
-2715 -2731 2705 0
-2715 -2732 2706 0
-2716 -2724 2699 0
-2716 -2725 2700 0
-2716 -2726 2701 0
-2716 -2727 2702 0
-2716 -2728 2703 0
-2716 -2729 2704 0
-2716 -2730 2705 0
-2716 -2731 2706 0
-2716 -2732 2707 0
-2717 -2724 2700 0
-2717 -2725 2701 0
-2717 -2726 2702 0
-2717 -2727 2703 0
-2717 -2728 2704 0
-2717 -2729 2705 0
-2717 -2730 2706 0
-2717 -2731 2707 0
-2717 -2732 2708 0
-2718 -2724 2701 0
-2718 -2725 2702 0
-2718 -2726 2703 0
-2718 -2727 2704 0
-2718 -2728 2705 0
-2718 -2729 2706 0
-2718 -2730 2707 0
-2718 -2731 2708 0
-2718 -2732 2709 0
-2719 -2724 2702 0
-2719 -2725 2703 0
-2719 -2726 2704 0
-2719 -2727 2705 0
-2719 -2728 2706 0
-2719 -2729 2707 0
-2719 -2730 2708 0
-2719 -2731 2709 0
-2719 -2732 2710 0
-2720 -2724 2703 0
-2720 -2725 2704 0
-2720 -2726 2705 0
-2720 -2727 2706 0
-2720 -2728 2707 0
-2720 -2729 2708 0
-2720 -2730 2709 0
-2720 -2731 2710 0
-2720 -2732 2711 0
-2721 -2724 2704 0
-2721 -2725 2705 0
-2721 -2726 2706 0
-2721 -2727 2707 0
-2721 -2728 2708 0
-2721 -2729 2709 0
-2721 -2730 2710 0
-2721 -2731 2711 0
-2721 -2732 2712 0
-2722 -2724 2705 0
-2722 -2725 2706 0
-2722 -2726 2707 0
-2722 -2727 2708 0
-2722 -2728 2709 0
-2722 -2729 2710 0
-2722 -2730 2711 0
-2722 -2731 2712 0
-2722 -2732 2713 0
-2723 -2724 2706 0
-2723 -2725 2707 0
-2723 -2726 2708 0
-2723 -2727 2709 0
-2723 -2728 2710 0
-2723 -2729 2711 0
-2723 -2730 2712 0
-2723 -2731 2713 0
-2723 -2732 2714 0
-2738 2724 0
-2739 2725 0
-2740 2726 0
-2741 2727 0
-2733 2724 0
-2734 2725 0
-2735 2726 0
-2736 2727 0
-2737 2728 0
-2733 -2738 2725 0
-2733 -2739 2726 0
-2733 -2740 2727 0
-2733 -2741 2728 0
-2734 -2738 2726 0
-2734 -2739 2727 0
-2734 -2740 2728 0
-2734 -2741 2729 0
-2735 -2738 2727 0
-2735 -2739 2728 0
-2735 -2740 2729 0
-2735 -2741 2730 0
-2736 -2738 2728 0
-2736 -2739 2729 0
-2736 -2740 2730 0
-2736 -2741 2731 0
-2737 -2738 2729 0
-2737 -2739 2730 0
-2737 -2740 2731 0
-2737 -2741 2732 0
-2744 2738 0
-2745 2739 0
-2742 2738 0
-2743 2739 0
-2742 -2744 2739 0
-2742 -2745 2740 0
-2743 -2744 2740 0
-2743 -2745 2741 0
-2642 2744 0
-2641 2744 0
-2641 -2642 2745 0
-2638 2742 0
-2637 2742 0
-2637 -2638 2743 0
-2749 2733 0
-2750 2734 0
-2746 2733 0
-2747 2734 0
-2748 2735 0
-2746 -2749 2734 0
-2746 -2750 2735 0
-2747 -2749 2735 0
-2747 -2750 2736 0
-2748 -2749 2736 0
-2748 -2750 2737 0
-2634 2749 0
-2633 2749 0
-2633 -2634 2750 0
-2630 2746 0
-2751 2746 0
-2752 2747 0
-2751 -2630 2747 0
-2752 -2630 2748 0
-2629 2751 0
-2626 2751 0
-2626 -2629 2752 0
-2758 2715 0
-2759 2716 0
-2760 2717 0
-2761 2718 0
-2753 2715 0
-2754 2716 0
-2755 2717 0
-2756 2718 0
-2757 2719 0
-2753 -2758 2716 0
-2753 -2759 2717 0
-2753 -2760 2718 0
-2753 -2761 2719 0
-2754 -2758 2717 0
-2754 -2759 2718 0
-2754 -2760 2719 0
-2754 -2761 2720 0
-2755 -2758 2718 0
-2755 -2759 2719 0
-2755 -2760 2720 0
-2755 -2761 2721 0
-2756 -2758 2719 0
-2756 -2759 2720 0
-2756 -2760 2721 0
-2756 -2761 2722 0
-2757 -2758 2720 0
-2757 -2759 2721 0
-2757 -2760 2722 0
-2757 -2761 2723 0
-2764 2758 0
-2765 2759 0
-2762 2758 0
-2763 2759 0
-2762 -2764 2759 0
-2762 -2765 2760 0
-2763 -2764 2760 0
-2763 -2765 2761 0
-2625 2764 0
-2622 2764 0
-2622 -2625 2765 0
-2621 2762 0
-2618 2762 0
-2618 -2621 2763 0
-2769 2753 0
-2770 2754 0
-2766 2753 0
-2767 2754 0
-2768 2755 0
-2766 -2769 2754 0
-2766 -2770 2755 0
-2767 -2769 2755 0
-2767 -2770 2756 0
-2768 -2769 2756 0
-2768 -2770 2757 0
-2617 2769 0
-2614 2769 0
-2614 -2617 2770 0
-2613 2766 0
-2771 2766 0
-2772 2767 0
-2771 -2613 2767 0
-2772 -2613 2768 0
-2610 2771 0
-2609 2771 0
-2609 -2610 2772 0
-2782 2679 0
-2783 2680 0
-2784 2681 0
-2785 2682 0
-2786 2683 0
-2787 2684 0
-2788 2685 0
-2789 2686 0
-2790 2687 0
-2773 2679 0
-2774 2680 0
-2775 2681 0
-2776 2682 0
-2777 2683 0
-2778 2684 0
-2779 2685 0
-2780 2686 0
-2781 2687 0
-2773 -2782 2680 0
-2773 -2783 2681 0
-2773 -2784 2682 0
-2773 -2785 2683 0
-2773 -2786 2684 0
-2773 -2787 2685 0
-2773 -2788 2686 0
-2773 -2789 2687 0
-2773 -2790 2688 0
-2774 -2782 2681 0
-2774 -2783 2682 0
-2774 -2784 2683 0
-2774 -2785 2684 0
-2774 -2786 2685 0
-2774 -2787 2686 0
-2774 -2788 2687 0
-2774 -2789 2688 0
-2774 -2790 2689 0
-2775 -2782 2682 0
-2775 -2783 2683 0
-2775 -2784 2684 0
-2775 -2785 2685 0
-2775 -2786 2686 0
-2775 -2787 2687 0
-2775 -2788 2688 0
-2775 -2789 2689 0
-2775 -2790 2690 0
-2776 -2782 2683 0
-2776 -2783 2684 0
-2776 -2784 2685 0
-2776 -2785 2686 0
-2776 -2786 2687 0
-2776 -2787 2688 0
-2776 -2788 2689 0
-2776 -2789 2690 0
-2776 -2790 2691 0
-2777 -2782 2684 0
-2777 -2783 2685 0
-2777 -2784 2686 0
-2777 -2785 2687 0
-2777 -2786 2688 0
-2777 -2787 2689 0
-2777 -2788 2690 0
-2777 -2789 2691 0
-2777 -2790 2692 0
-2778 -2782 2685 0
-2778 -2783 2686 0
-2778 -2784 2687 0
-2778 -2785 2688 0
-2778 -2786 2689 0
-2778 -2787 2690 0
-2778 -2788 2691 0
-2778 -2789 2692 0
-2778 -2790 2693 0
-2779 -2782 2686 0
-2779 -2783 2687 0
-2779 -2784 2688 0
-2779 -2785 2689 0
-2779 -2786 2690 0
-2779 -2787 2691 0
-2779 -2788 2692 0
-2779 -2789 2693 0
-2779 -2790 2694 0
-2780 -2782 2687 0
-2780 -2783 2688 0
-2780 -2784 2689 0
-2780 -2785 2690 0
-2780 -2786 2691 0
-2780 -2787 2692 0
-2780 -2788 2693 0
-2780 -2789 2694 0
-2780 -2790 2695 0
-2781 -2782 2688 0
-2781 -2783 2689 0
-2781 -2784 2690 0
-2781 -2785 2691 0
-2781 -2786 2692 0
-2781 -2787 2693 0
-2781 -2788 2694 0
-2781 -2789 2695 0
-2781 -2790 2696 0
-2796 2782 0
-2797 2783 0
-2798 2784 0
-2799 2785 0
-2791 2782 0
-2792 2783 0
-2793 2784 0
-2794 2785 0
-2795 2786 0
-2791 -2796 2783 0
-2791 -2797 2784 0
-2791 -2798 2785 0
-2791 -2799 2786 0
-2792 -2796 2784 0
-2792 -2797 2785 0
-2792 -2798 2786 0
-2792 -2799 2787 0
-2793 -2796 2785 0
-2793 -2797 2786 0
-2793 -2798 2787 0
-2793 -2799 2788 0
-2794 -2796 2786 0
-2794 -2797 2787 0
-2794 -2798 2788 0
-2794 -2799 2789 0
-2795 -2796 2787 0
-2795 -2797 2788 0
-2795 -2798 2789 0
-2795 -2799 2790 0
-2802 2796 0
-2803 2797 0
-2800 2796 0
-2801 2797 0
-2800 -2802 2797 0
-2800 -2803 2798 0
-2801 -2802 2798 0
-2801 -2803 2799 0
2640 2802 0
2639 2802 0
2639 2640 2803 0
2636 2800 0
2635 2800 0
2635 2636 2801 0
-2807 2791 0
-2808 2792 0
-2804 2791 0
-2805 2792 0
-2806 2793 0
-2804 -2807 2792 0
-2804 -2808 2793 0
-2805 -2807 2793 0
-2805 -2808 2794 0
-2806 -2807 2794 0
-2806 -2808 2795 0
2632 2807 0
2631 2807 0
2631 2632 2808 0
2628 2804 0
-2809 2804 0
-2810 2805 0
-2809 2628 2805 0
-2810 2628 2806 0
2627 2809 0
2624 2809 0
2624 2627 2810 0
-2816 2773 0
-2817 2774 0
-2818 2775 0
-2819 2776 0
-2811 2773 0
-2812 2774 0
-2813 2775 0
-2814 2776 0
-2815 2777 0
-2811 -2816 2774 0
-2811 -2817 2775 0
-2811 -2818 2776 0
-2811 -2819 2777 0
-2812 -2816 2775 0
-2812 -2817 2776 0
-2812 -2818 2777 0
-2812 -2819 2778 0
-2813 -2816 2776 0
-2813 -2817 2777 0
-2813 -2818 2778 0
-2813 -2819 2779 0
-2814 -2816 2777 0
-2814 -2817 2778 0
-2814 -2818 2779 0
-2814 -2819 2780 0
-2815 -2816 2778 0
-2815 -2817 2779 0
-2815 -2818 2780 0
-2815 -2819 2781 0
-2822 2816 0
-2823 2817 0
-2820 2816 0
-2821 2817 0
-2820 -2822 2817 0
-2820 -2823 2818 0
-2821 -2822 2818 0
-2821 -2823 2819 0
2623 2822 0
2620 2822 0
2620 2623 2823 0
2619 2820 0
2616 2820 0
2616 2619 2821 0
-2827 2811 0
-2828 2812 0
-2824 2811 0
-2825 2812 0
-2826 2813 0
-2824 -2827 2812 0
-2824 -2828 2813 0
-2825 -2827 2813 0
-2825 -2828 2814 0
-2826 -2827 2814 0
-2826 -2828 2815 0
2615 2827 0
2612 2827 0
2612 2615 2828 0
2611 2824 0
-2829 2824 0
-2830 2825 0
-2829 2611 2825 0
-2830 2611 2826 0
2608 2829 0
2607 2829 0
2607 2608 2830 0
-2662 0
-2885 2831 0
-2886 2832 0
-2887 2833 0
-2888 2834 0
-2889 2835 0
-2890 2836 0
-2891 2837 0
-2892 2838 0
-2893 2839 0
-2894 2840 0
-2895 2841 0
-2896 2842 0
-2897 2843 0
-2898 2844 0
-2899 2845 0
-2900 2846 0
-2901 2847 0
-2902 2848 0
-2867 2831 0
-2868 2832 0
-2869 2833 0
-2870 2834 0
-2871 2835 0
-2872 2836 0
-2873 2837 0
-2874 2838 0
-2875 2839 0
-2876 2840 0
-2877 2841 0
-2878 2842 0
-2879 2843 0
-2880 2844 0
-2881 2845 0
-2882 2846 0
-2883 2847 0
-2884 2848 0
-2867 -2885 2832 0
-2867 -2886 2833 0
-2867 -2887 2834 0
-2867 -2888 2835 0
-2867 -2889 2836 0
-2867 -2890 2837 0
-2867 -2891 2838 0
-2867 -2892 2839 0
-2867 -2893 2840 0
-2867 -2894 2841 0
-2867 -2895 2842 0
-2867 -2896 2843 0
-2867 -2897 2844 0
-2867 -2898 2845 0
-2867 -2899 2846 0
-2867 -2900 2847 0
-2867 -2901 2848 0
-2867 -2902 2849 0
-2868 -2885 2833 0
-2868 -2886 2834 0
-2868 -2887 2835 0
-2868 -2888 2836 0
-2868 -2889 2837 0
-2868 -2890 2838 0
-2868 -2891 2839 0
-2868 -2892 2840 0
-2868 -2893 2841 0
-2868 -2894 2842 0
-2868 -2895 2843 0
-2868 -2896 2844 0
-2868 -2897 2845 0
-2868 -2898 2846 0
-2868 -2899 2847 0
-2868 -2900 2848 0
-2868 -2901 2849 0
-2868 -2902 2850 0
-2869 -2885 2834 0
-2869 -2886 2835 0
-2869 -2887 2836 0
-2869 -2888 2837 0
-2869 -2889 2838 0
-2869 -2890 2839 0
-2869 -2891 2840 0
-2869 -2892 2841 0
-2869 -2893 2842 0
-2869 -2894 2843 0
-2869 -2895 2844 0
-2869 -2896 2845 0
-2869 -2897 2846 0
-2869 -2898 2847 0
-2869 -2899 2848 0
-2869 -2900 2849 0
-2869 -2901 2850 0
-2869 -2902 2851 0
-2870 -2885 2835 0
-2870 -2886 2836 0
-2870 -2887 2837 0
-2870 -2888 2838 0
-2870 -2889 2839 0
-2870 -2890 2840 0
-2870 -2891 2841 0
-2870 -2892 2842 0
-2870 -2893 2843 0
-2870 -2894 2844 0
-2870 -2895 2845 0
-2870 -2896 2846 0
-2870 -2897 2847 0
-2870 -2898 2848 0
-2870 -2899 2849 0
-2870 -2900 2850 0
-2870 -2901 2851 0
-2870 -2902 2852 0
-2871 -2885 2836 0
-2871 -2886 2837 0
-2871 -2887 2838 0
-2871 -2888 2839 0
-2871 -2889 2840 0
-2871 -2890 2841 0
-2871 -2891 2842 0
-2871 -2892 2843 0
-2871 -2893 2844 0
-2871 -2894 2845 0
-2871 -2895 2846 0
-2871 -2896 2847 0
-2871 -2897 2848 0
-2871 -2898 2849 0
-2871 -2899 2850 0
-2871 -2900 2851 0
-2871 -2901 2852 0
-2871 -2902 2853 0
-2872 -2885 2837 0
-2872 -2886 2838 0
-2872 -2887 2839 0
-2872 -2888 2840 0
-2872 -2889 2841 0
-2872 -2890 2842 0
-2872 -2891 2843 0
-2872 -2892 2844 0
-2872 -2893 2845 0
-2872 -2894 2846 0
-2872 -2895 2847 0
-2872 -2896 2848 0
-2872 -2897 2849 0
-2872 -2898 2850 0
-2872 -2899 2851 0
-2872 -2900 2852 0
-2872 -2901 2853 0
-2872 -2902 2854 0
-2873 -2885 2838 0
-2873 -2886 2839 0
-2873 -2887 2840 0
-2873 -2888 2841 0
-2873 -2889 2842 0
-2873 -2890 2843 0
-2873 -2891 2844 0
-2873 -2892 2845 0
-2873 -2893 2846 0
-2873 -2894 2847 0
-2873 -2895 2848 0
-2873 -2896 2849 0
-2873 -2897 2850 0
-2873 -2898 2851 0
-2873 -2899 2852 0
-2873 -2900 2853 0
-2873 -2901 2854 0
-2873 -2902 2855 0
-2874 -2885 2839 0
-2874 -2886 2840 0
-2874 -2887 2841 0
-2874 -2888 2842 0
-2874 -2889 2843 0
-2874 -2890 2844 0
-2874 -2891 2845 0
-2874 -2892 2846 0
-2874 -2893 2847 0
-2874 -2894 2848 0
-2874 -2895 2849 0
-2874 -2896 2850 0
-2874 -2897 2851 0
-2874 -2898 2852 0
-2874 -2899 2853 0
-2874 -2900 2854 0
-2874 -2901 2855 0
-2874 -2902 2856 0
-2875 -2885 2840 0
-2875 -2886 2841 0
-2875 -2887 2842 0
-2875 -2888 2843 0
-2875 -2889 2844 0
-2875 -2890 2845 0
-2875 -2891 2846 0
-2875 -2892 2847 0
-2875 -2893 2848 0
-2875 -2894 2849 0
-2875 -2895 2850 0
-2875 -2896 2851 0
-2875 -2897 2852 0
-2875 -2898 2853 0
-2875 -2899 2854 0
-2875 -2900 2855 0
-2875 -2901 2856 0
-2875 -2902 2857 0
-2876 -2885 2841 0
-2876 -2886 2842 0
-2876 -2887 2843 0
-2876 -2888 2844 0
-2876 -2889 2845 0
-2876 -2890 2846 0
-2876 -2891 2847 0
-2876 -2892 2848 0
-2876 -2893 2849 0
-2876 -2894 2850 0
-2876 -2895 2851 0
-2876 -2896 2852 0
-2876 -2897 2853 0
-2876 -2898 2854 0
-2876 -2899 2855 0
-2876 -2900 2856 0
-2876 -2901 2857 0
-2876 -2902 2858 0
-2877 -2885 2842 0
-2877 -2886 2843 0
-2877 -2887 2844 0
-2877 -2888 2845 0
-2877 -2889 2846 0
-2877 -2890 2847 0
-2877 -2891 2848 0
-2877 -2892 2849 0
-2877 -2893 2850 0
-2877 -2894 2851 0
-2877 -2895 2852 0
-2877 -2896 2853 0
-2877 -2897 2854 0
-2877 -2898 2855 0
-2877 -2899 2856 0
-2877 -2900 2857 0
-2877 -2901 2858 0
-2877 -2902 2859 0
-2878 -2885 2843 0
-2878 -2886 2844 0
-2878 -2887 2845 0
-2878 -2888 2846 0
-2878 -2889 2847 0
-2878 -2890 2848 0
-2878 -2891 2849 0
-2878 -2892 2850 0
-2878 -2893 2851 0
-2878 -2894 2852 0
-2878 -2895 2853 0
-2878 -2896 2854 0
-2878 -2897 2855 0
-2878 -2898 2856 0
-2878 -2899 2857 0
-2878 -2900 2858 0
-2878 -2901 2859 0
-2878 -2902 2860 0
-2879 -2885 2844 0
-2879 -2886 2845 0
-2879 -2887 2846 0
-2879 -2888 2847 0
-2879 -2889 2848 0
-2879 -2890 2849 0
-2879 -2891 2850 0
-2879 -2892 2851 0
-2879 -2893 2852 0
-2879 -2894 2853 0
-2879 -2895 2854 0
-2879 -2896 2855 0
-2879 -2897 2856 0
-2879 -2898 2857 0
-2879 -2899 2858 0
-2879 -2900 2859 0
-2879 -2901 2860 0
-2879 -2902 2861 0
-2880 -2885 2845 0
-2880 -2886 2846 0
-2880 -2887 2847 0
-2880 -2888 2848 0
-2880 -2889 2849 0
-2880 -2890 2850 0
-2880 -2891 2851 0
-2880 -2892 2852 0
-2880 -2893 2853 0
-2880 -2894 2854 0
-2880 -2895 2855 0
-2880 -2896 2856 0
-2880 -2897 2857 0
-2880 -2898 2858 0
-2880 -2899 2859 0
-2880 -2900 2860 0
-2880 -2901 2861 0
-2880 -2902 2862 0
-2881 -2885 2846 0
-2881 -2886 2847 0
-2881 -2887 2848 0
-2881 -2888 2849 0
-2881 -2889 2850 0
-2881 -2890 2851 0
-2881 -2891 2852 0
-2881 -2892 2853 0
-2881 -2893 2854 0
-2881 -2894 2855 0
-2881 -2895 2856 0
-2881 -2896 2857 0
-2881 -2897 2858 0
-2881 -2898 2859 0
-2881 -2899 2860 0
-2881 -2900 2861 0
-2881 -2901 2862 0
-2881 -2902 2863 0
-2882 -2885 2847 0
-2882 -2886 2848 0
-2882 -2887 2849 0
-2882 -2888 2850 0
-2882 -2889 2851 0
-2882 -2890 2852 0
-2882 -2891 2853 0
-2882 -2892 2854 0
-2882 -2893 2855 0
-2882 -2894 2856 0
-2882 -2895 2857 0
-2882 -2896 2858 0
-2882 -2897 2859 0
-2882 -2898 2860 0
-2882 -2899 2861 0
-2882 -2900 2862 0
-2882 -2901 2863 0
-2882 -2902 2864 0
-2883 -2885 2848 0
-2883 -2886 2849 0
-2883 -2887 2850 0
-2883 -2888 2851 0
-2883 -2889 2852 0
-2883 -2890 2853 0
-2883 -2891 2854 0
-2883 -2892 2855 0
-2883 -2893 2856 0
-2883 -2894 2857 0
-2883 -2895 2858 0
-2883 -2896 2859 0
-2883 -2897 2860 0
-2883 -2898 2861 0
-2883 -2899 2862 0
-2883 -2900 2863 0
-2883 -2901 2864 0
-2883 -2902 2865 0
-2884 -2885 2849 0
-2884 -2886 2850 0
-2884 -2887 2851 0
-2884 -2888 2852 0
-2884 -2889 2853 0
-2884 -2890 2854 0
-2884 -2891 2855 0
-2884 -2892 2856 0
-2884 -2893 2857 0
-2884 -2894 2858 0
-2884 -2895 2859 0
-2884 -2896 2860 0
-2884 -2897 2861 0
-2884 -2898 2862 0
-2884 -2899 2863 0
-2884 -2900 2864 0
-2884 -2901 2865 0
-2884 -2902 2866 0
-2912 2885 0
-2913 2886 0
-2914 2887 0
-2915 2888 0
-2916 2889 0
-2917 2890 0
-2918 2891 0
-2919 2892 0
-2920 2893 0
-2903 2885 0
-2904 2886 0
-2905 2887 0
-2906 2888 0
-2907 2889 0
-2908 2890 0
-2909 2891 0
-2910 2892 0
-2911 2893 0
-2903 -2912 2886 0
-2903 -2913 2887 0
-2903 -2914 2888 0
-2903 -2915 2889 0
-2903 -2916 2890 0
-2903 -2917 2891 0
-2903 -2918 2892 0
-2903 -2919 2893 0
-2903 -2920 2894 0
-2904 -2912 2887 0
-2904 -2913 2888 0
-2904 -2914 2889 0
-2904 -2915 2890 0
-2904 -2916 2891 0
-2904 -2917 2892 0
-2904 -2918 2893 0
-2904 -2919 2894 0
-2904 -2920 2895 0
-2905 -2912 2888 0
-2905 -2913 2889 0
-2905 -2914 2890 0
-2905 -2915 2891 0
-2905 -2916 2892 0
-2905 -2917 2893 0
-2905 -2918 2894 0
-2905 -2919 2895 0
-2905 -2920 2896 0
-2906 -2912 2889 0
-2906 -2913 2890 0
-2906 -2914 2891 0
-2906 -2915 2892 0
-2906 -2916 2893 0
-2906 -2917 2894 0
-2906 -2918 2895 0
-2906 -2919 2896 0
-2906 -2920 2897 0
-2907 -2912 2890 0
-2907 -2913 2891 0
-2907 -2914 2892 0
-2907 -2915 2893 0
-2907 -2916 2894 0
-2907 -2917 2895 0
-2907 -2918 2896 0
-2907 -2919 2897 0
-2907 -2920 2898 0
-2908 -2912 2891 0
-2908 -2913 2892 0
-2908 -2914 2893 0
-2908 -2915 2894 0
-2908 -2916 2895 0
-2908 -2917 2896 0
-2908 -2918 2897 0
-2908 -2919 2898 0
-2908 -2920 2899 0
-2909 -2912 2892 0
-2909 -2913 2893 0
-2909 -2914 2894 0
-2909 -2915 2895 0
-2909 -2916 2896 0
-2909 -2917 2897 0
-2909 -2918 2898 0
-2909 -2919 2899 0
-2909 -2920 2900 0
-2910 -2912 2893 0
-2910 -2913 2894 0
-2910 -2914 2895 0
-2910 -2915 2896 0
-2910 -2916 2897 0
-2910 -2917 2898 0
-2910 -2918 2899 0
-2910 -2919 2900 0
-2910 -2920 2901 0
-2911 -2912 2894 0
-2911 -2913 2895 0
-2911 -2914 2896 0
-2911 -2915 2897 0
-2911 -2916 2898 0
-2911 -2917 2899 0
-2911 -2918 2900 0
-2911 -2919 2901 0
-2911 -2920 2902 0
-2926 2912 0
-2927 2913 0
-2928 2914 0
-2929 2915 0
-2921 2912 0
-2922 2913 0
-2923 2914 0
-2924 2915 0
-2925 2916 0
-2921 -2926 2913 0
-2921 -2927 2914 0
-2921 -2928 2915 0
-2921 -2929 2916 0
-2922 -2926 2914 0
-2922 -2927 2915 0
-2922 -2928 2916 0
-2922 -2929 2917 0
-2923 -2926 2915 0
-2923 -2927 2916 0
-2923 -2928 2917 0
-2923 -2929 2918 0
-2924 -2926 2916 0
-2924 -2927 2917 0
-2924 -2928 2918 0
-2924 -2929 2919 0
-2925 -2926 2917 0
-2925 -2927 2918 0
-2925 -2928 2919 0
-2925 -2929 2920 0
-2932 2926 0
-2933 2927 0
-2930 2926 0
-2931 2927 0
-2930 -2932 2927 0
-2930 -2933 2928 0
-2931 -2932 2928 0
-2931 -2933 2929 0
2642 2932 0
2641 2932 0
2641 2642 2933 0
2638 2930 0
2637 2930 0
2637 2638 2931 0
-2937 2921 0
-2938 2922 0
-2934 2921 0
-2935 2922 0
-2936 2923 0
-2934 -2937 2922 0
-2934 -2938 2923 0
-2935 -2937 2923 0
-2935 -2938 2924 0
-2936 -2937 2924 0
-2936 -2938 2925 0
2634 2937 0
2633 2937 0
2633 2634 2938 0
2630 2934 0
-2939 2934 0
-2940 2935 0
-2939 2630 2935 0
-2940 2630 2936 0
2629 2939 0
2626 2939 0
2626 2629 2940 0
-2946 2903 0
-2947 2904 0
-2948 2905 0
-2949 2906 0
-2941 2903 0
-2942 2904 0
-2943 2905 0
-2944 2906 0
-2945 2907 0
-2941 -2946 2904 0
-2941 -2947 2905 0
-2941 -2948 2906 0
-2941 -2949 2907 0
-2942 -2946 2905 0
-2942 -2947 2906 0
-2942 -2948 2907 0
-2942 -2949 2908 0
-2943 -2946 2906 0
-2943 -2947 2907 0
-2943 -2948 2908 0
-2943 -2949 2909 0
-2944 -2946 2907 0
-2944 -2947 2908 0
-2944 -2948 2909 0
-2944 -2949 2910 0
-2945 -2946 2908 0
-2945 -2947 2909 0
-2945 -2948 2910 0
-2945 -2949 2911 0
-2952 2946 0
-2953 2947 0
-2950 2946 0
-2951 2947 0
-2950 -2952 2947 0
-2950 -2953 2948 0
-2951 -2952 2948 0
-2951 -2953 2949 0
2625 2952 0
2622 2952 0
2622 2625 2953 0
2621 2950 0
2618 2950 0
2618 2621 2951 0
-2957 2941 0
-2958 2942 0
-2954 2941 0
-2955 2942 0
-2956 2943 0
-2954 -2957 2942 0
-2954 -2958 2943 0
-2955 -2957 2943 0
-2955 -2958 2944 0
-2956 -2957 2944 0
-2956 -2958 2945 0
2617 2957 0
2614 2957 0
2614 2617 2958 0
2613 2954 0
-2959 2954 0
-2960 2955 0
-2959 2613 2955 0
-2960 2613 2956 0
2610 2959 0
2609 2959 0
2609 2610 2960 0
-2970 2867 0
-2971 2868 0
-2972 2869 0
-2973 2870 0
-2974 2871 0
-2975 2872 0
-2976 2873 0
-2977 2874 0
-2978 2875 0
-2961 2867 0
-2962 2868 0
-2963 2869 0
-2964 2870 0
-2965 2871 0
-2966 2872 0
-2967 2873 0
-2968 2874 0
-2969 2875 0
-2961 -2970 2868 0
-2961 -2971 2869 0
-2961 -2972 2870 0
-2961 -2973 2871 0
-2961 -2974 2872 0
-2961 -2975 2873 0
-2961 -2976 2874 0
-2961 -2977 2875 0
-2961 -2978 2876 0
-2962 -2970 2869 0
-2962 -2971 2870 0
-2962 -2972 2871 0
-2962 -2973 2872 0
-2962 -2974 2873 0
-2962 -2975 2874 0
-2962 -2976 2875 0
-2962 -2977 2876 0
-2962 -2978 2877 0
-2963 -2970 2870 0
-2963 -2971 2871 0
-2963 -2972 2872 0
-2963 -2973 2873 0
-2963 -2974 2874 0
-2963 -2975 2875 0
-2963 -2976 2876 0
-2963 -2977 2877 0
-2963 -2978 2878 0
-2964 -2970 2871 0
-2964 -2971 2872 0
-2964 -2972 2873 0
-2964 -2973 2874 0
-2964 -2974 2875 0
-2964 -2975 2876 0
-2964 -2976 2877 0
-2964 -2977 2878 0
-2964 -2978 2879 0
-2965 -2970 2872 0
-2965 -2971 2873 0
-2965 -2972 2874 0
-2965 -2973 2875 0
-2965 -2974 2876 0
-2965 -2975 2877 0
-2965 -2976 2878 0
-2965 -2977 2879 0
-2965 -2978 2880 0
-2966 -2970 2873 0
-2966 -2971 2874 0
-2966 -2972 2875 0
-2966 -2973 2876 0
-2966 -2974 2877 0
-2966 -2975 2878 0
-2966 -2976 2879 0
-2966 -2977 2880 0
-2966 -2978 2881 0
-2967 -2970 2874 0
-2967 -2971 2875 0
-2967 -2972 2876 0
-2967 -2973 2877 0
-2967 -2974 2878 0
-2967 -2975 2879 0
-2967 -2976 2880 0
-2967 -2977 2881 0
-2967 -2978 2882 0
-2968 -2970 2875 0
-2968 -2971 2876 0
-2968 -2972 2877 0
-2968 -2973 2878 0
-2968 -2974 2879 0
-2968 -2975 2880 0
-2968 -2976 2881 0
-2968 -2977 2882 0
-2968 -2978 2883 0
-2969 -2970 2876 0
-2969 -2971 2877 0
-2969 -2972 2878 0
-2969 -2973 2879 0
-2969 -2974 2880 0
-2969 -2975 2881 0
-2969 -2976 2882 0
-2969 -2977 2883 0
-2969 -2978 2884 0
-2984 2970 0
-2985 2971 0
-2986 2972 0
-2987 2973 0
-2979 2970 0
-2980 2971 0
-2981 2972 0
-2982 2973 0
-2983 2974 0
-2979 -2984 2971 0
-2979 -2985 2972 0
-2979 -2986 2973 0
-2979 -2987 2974 0
-2980 -2984 2972 0
-2980 -2985 2973 0
-2980 -2986 2974 0
-2980 -2987 2975 0
-2981 -2984 2973 0
-2981 -2985 2974 0
-2981 -2986 2975 0
-2981 -2987 2976 0
-2982 -2984 2974 0
-2982 -2985 2975 0
-2982 -2986 2976 0
-2982 -2987 2977 0
-2983 -2984 2975 0
-2983 -2985 2976 0
-2983 -2986 2977 0
-2983 -2987 2978 0
-2990 2984 0
-2991 2985 0
-2988 2984 0
-2989 2985 0
-2988 -2990 2985 0
-2988 -2991 2986 0
-2989 -2990 2986 0
-2989 -2991 2987 0
-2640 2990 0
-2639 2990 0
-2639 -2640 2991 0
-2636 2988 0
-2635 2988 0
-2635 -2636 2989 0
-2995 2979 0
-2996 2980 0
-2992 2979 0
-2993 2980 0
-2994 2981 0
-2992 -2995 2980 0
-2992 -2996 2981 0
-2993 -2995 2981 0
-2993 -2996 2982 0
-2994 -2995 2982 0
-2994 -2996 2983 0
-2632 2995 0
-2631 2995 0
-2631 -2632 2996 0
-2628 2992 0
-2997 2992 0
-2998 2993 0
-2997 -2628 2993 0
-2998 -2628 2994 0
-2627 2997 0
-2624 2997 0
-2624 -2627 2998 0
-3004 2961 0
-3005 2962 0
-3006 2963 0
-3007 2964 0
-2999 2961 0
-3000 2962 0
-3001 2963 0
-3002 2964 0
-3003 2965 0
-2999 -3004 2962 0
-2999 -3005 2963 0
-2999 -3006 2964 0
-2999 -3007 2965 0
-3000 -3004 2963 0
-3000 -3005 2964 0
-3000 -3006 2965 0
-3000 -3007 2966 0
-3001 -3004 2964 0
-3001 -3005 2965 0
-3001 -3006 2966 0
-3001 -3007 2967 0
-3002 -3004 2965 0
-3002 -3005 2966 0
-3002 -3006 2967 0
-3002 -3007 2968 0
-3003 -3004 2966 0
-3003 -3005 2967 0
-3003 -3006 2968 0
-3003 -3007 2969 0
-3010 3004 0
-3011 3005 0
-3008 3004 0
-3009 3005 0
-3008 -3010 3005 0
-3008 -3011 3006 0
-3009 -3010 3006 0
-3009 -3011 3007 0
-2623 3010 0
-2620 3010 0
-2620 -2623 3011 0
-2619 3008 0
-2616 3008 0
-2616 -2619 3009 0
-3015 2999 0
-3016 3000 0
-3012 2999 0
-3013 3000 0
-3014 3001 0
-3012 -3015 3000 0
-3012 -3016 3001 0
-3013 -3015 3001 0
-3013 -3016 3002 0
-3014 -3015 3002 0
-3014 -3016 3003 0
-2615 3015 0
-2612 3015 0
-2612 -2615 3016 0
-2611 3012 0
-3017 3012 0
-3018 3013 0
-3017 -2611 3013 0
-3018 -2611 3014 0
-2608 3017 0
-2607 3017 0
-2607 -2608 3018 0
-2848 0
-3019 1 0
-3019 5 0
3019 -1 -5 0
-3020 10 0
-3020 14 0
3020 -10 -14 0
-3021 1 0
-3021 14 0
3021 -1 -14 0
-3022 10 0
-3022 5 0
3022 -10 -5 0
-3023 2 0
-3023 6 0
3023 -2 -6 0
-3024 11 0
-3024 15 0
3024 -11 -15 0
-3025 2 0
-3025 15 0
3025 -2 -15 0
-3026 11 0
-3026 6 0
3026 -11 -6 0
-3027 3 0
-3027 4 0
3027 -3 -4 0
-3028 12 0
-3028 13 0
3028 -12 -13 0
-3029 3 0
-3029 13 0
3029 -3 -13 0
-3030 12 0
-3030 4 0
3030 -12 -4 0
-3031 4 0
-3031 8 0
3031 -4 -8 0
-3032 13 0
-3032 17 0
3032 -13 -17 0
-3033 4 0
-3033 17 0
3033 -4 -17 0
-3034 13 0
-3034 8 0
3034 -13 -8 0
-3035 5 0
-3035 9 0
3035 -5 -9 0
-3036 14 0
-3036 18 0
3036 -14 -18 0
-3037 5 0
-3037 18 0
3037 -5 -18 0
-3038 14 0
-3038 9 0
3038 -14 -9 0
-3039 6 0
-3039 7 0
3039 -6 -7 0
-3040 15 0
-3040 16 0
3040 -15 -16 0
-3041 6 0
-3041 16 0
3041 -6 -16 0
-3042 15 0
-3042 7 0
3042 -15 -7 0
-3043 7 0
-3043 2 0
3043 -7 -2 0
-3044 16 0
-3044 11 0
3044 -16 -11 0
-3045 7 0
-3045 11 0
3045 -7 -11 0
-3046 16 0
-3046 2 0
3046 -16 -2 0
-3047 8 0
-3047 3 0
3047 -8 -3 0
-3048 17 0
-3048 12 0
3048 -17 -12 0
-3049 8 0
-3049 12 0
3049 -8 -12 0
-3050 17 0
-3050 3 0
3050 -17 -3 0
-3051 9 0
-3051 1 0
3051 -9 -1 0
-3052 18 0
-3052 10 0
3052 -18 -10 0
-3053 9 0
-3053 10 0
3053 -9 -10 0
-3054 18 0
-3054 1 0
3054 -18 -1 0
-3109 3055 0
-3110 3056 0
-3111 3057 0
-3112 3058 0
-3113 3059 0
-3114 3060 0
-3115 3061 0
-3116 3062 0
-3117 3063 0
-3118 3064 0
-3119 3065 0
-3120 3066 0
-3121 3067 0
-3122 3068 0
-3123 3069 0
-3124 3070 0
-3125 3071 0
-3126 3072 0
-3091 3055 0
-3092 3056 0
-3093 3057 0
-3094 3058 0
-3095 3059 0
-3096 3060 0
-3097 3061 0
-3098 3062 0
-3099 3063 0
-3100 3064 0
-3101 3065 0
-3102 3066 0
-3103 3067 0
-3104 3068 0
-3105 3069 0
-3106 3070 0
-3107 3071 0
-3108 3072 0
-3091 -3109 3056 0
-3091 -3110 3057 0
-3091 -3111 3058 0
-3091 -3112 3059 0
-3091 -3113 3060 0
-3091 -3114 3061 0
-3091 -3115 3062 0
-3091 -3116 3063 0
-3091 -3117 3064 0
-3091 -3118 3065 0
-3091 -3119 3066 0
-3091 -3120 3067 0
-3091 -3121 3068 0
-3091 -3122 3069 0
-3091 -3123 3070 0
-3091 -3124 3071 0
-3091 -3125 3072 0
-3091 -3126 3073 0
-3092 -3109 3057 0
-3092 -3110 3058 0
-3092 -3111 3059 0
-3092 -3112 3060 0
-3092 -3113 3061 0
-3092 -3114 3062 0
-3092 -3115 3063 0
-3092 -3116 3064 0
-3092 -3117 3065 0
-3092 -3118 3066 0
-3092 -3119 3067 0
-3092 -3120 3068 0
-3092 -3121 3069 0
-3092 -3122 3070 0
-3092 -3123 3071 0
-3092 -3124 3072 0
-3092 -3125 3073 0
-3092 -3126 3074 0
-3093 -3109 3058 0
-3093 -3110 3059 0
-3093 -3111 3060 0
-3093 -3112 3061 0
-3093 -3113 3062 0
-3093 -3114 3063 0
-3093 -3115 3064 0
-3093 -3116 3065 0
-3093 -3117 3066 0
-3093 -3118 3067 0
-3093 -3119 3068 0
-3093 -3120 3069 0
-3093 -3121 3070 0
-3093 -3122 3071 0
-3093 -3123 3072 0
-3093 -3124 3073 0
-3093 -3125 3074 0
-3093 -3126 3075 0
-3094 -3109 3059 0
-3094 -3110 3060 0
-3094 -3111 3061 0
-3094 -3112 3062 0
-3094 -3113 3063 0
-3094 -3114 3064 0
-3094 -3115 3065 0
-3094 -3116 3066 0
-3094 -3117 3067 0
-3094 -3118 3068 0
-3094 -3119 3069 0
-3094 -3120 3070 0
-3094 -3121 3071 0
-3094 -3122 3072 0
-3094 -3123 3073 0
-3094 -3124 3074 0
-3094 -3125 3075 0
-3094 -3126 3076 0
-3095 -3109 3060 0
-3095 -3110 3061 0
-3095 -3111 3062 0
-3095 -3112 3063 0
-3095 -3113 3064 0
-3095 -3114 3065 0
-3095 -3115 3066 0
-3095 -3116 3067 0
-3095 -3117 3068 0
-3095 -3118 3069 0
-3095 -3119 3070 0
-3095 -3120 3071 0
-3095 -3121 3072 0
-3095 -3122 3073 0
-3095 -3123 3074 0
-3095 -3124 3075 0
-3095 -3125 3076 0
-3095 -3126 3077 0
-3096 -3109 3061 0
-3096 -3110 3062 0
-3096 -3111 3063 0
-3096 -3112 3064 0
-3096 -3113 3065 0
-3096 -3114 3066 0
-3096 -3115 3067 0
-3096 -3116 3068 0
-3096 -3117 3069 0
-3096 -3118 3070 0
-3096 -3119 3071 0
-3096 -3120 3072 0
-3096 -3121 3073 0
-3096 -3122 3074 0
-3096 -3123 3075 0
-3096 -3124 3076 0
-3096 -3125 3077 0
-3096 -3126 3078 0
-3097 -3109 3062 0
-3097 -3110 3063 0
-3097 -3111 3064 0
-3097 -3112 3065 0
-3097 -3113 3066 0
-3097 -3114 3067 0
-3097 -3115 3068 0
-3097 -3116 3069 0
-3097 -3117 3070 0
-3097 -3118 3071 0
-3097 -3119 3072 0
-3097 -3120 3073 0
-3097 -3121 3074 0
-3097 -3122 3075 0
-3097 -3123 3076 0
-3097 -3124 3077 0
-3097 -3125 3078 0
-3097 -3126 3079 0
-3098 -3109 3063 0
-3098 -3110 3064 0
-3098 -3111 3065 0
-3098 -3112 3066 0
-3098 -3113 3067 0
-3098 -3114 3068 0
-3098 -3115 3069 0
-3098 -3116 3070 0
-3098 -3117 3071 0
-3098 -3118 3072 0
-3098 -3119 3073 0
-3098 -3120 3074 0
-3098 -3121 3075 0
-3098 -3122 3076 0
-3098 -3123 3077 0
-3098 -3124 3078 0
-3098 -3125 3079 0
-3098 -3126 3080 0
-3099 -3109 3064 0
-3099 -3110 3065 0
-3099 -3111 3066 0
-3099 -3112 3067 0
-3099 -3113 3068 0
-3099 -3114 3069 0
-3099 -3115 3070 0
-3099 -3116 3071 0
-3099 -3117 3072 0
-3099 -3118 3073 0
-3099 -3119 3074 0
-3099 -3120 3075 0
-3099 -3121 3076 0
-3099 -3122 3077 0
-3099 -3123 3078 0
-3099 -3124 3079 0
-3099 -3125 3080 0
-3099 -3126 3081 0
-3100 -3109 3065 0
-3100 -3110 3066 0
-3100 -3111 3067 0
-3100 -3112 3068 0
-3100 -3113 3069 0
-3100 -3114 3070 0
-3100 -3115 3071 0
-3100 -3116 3072 0
-3100 -3117 3073 0
-3100 -3118 3074 0
-3100 -3119 3075 0
-3100 -3120 3076 0
-3100 -3121 3077 0
-3100 -3122 3078 0
-3100 -3123 3079 0
-3100 -3124 3080 0
-3100 -3125 3081 0
-3100 -3126 3082 0
-3101 -3109 3066 0
-3101 -3110 3067 0
-3101 -3111 3068 0
-3101 -3112 3069 0
-3101 -3113 3070 0
-3101 -3114 3071 0
-3101 -3115 3072 0
-3101 -3116 3073 0
-3101 -3117 3074 0
-3101 -3118 3075 0
-3101 -3119 3076 0
-3101 -3120 3077 0
-3101 -3121 3078 0
-3101 -3122 3079 0
-3101 -3123 3080 0
-3101 -3124 3081 0
-3101 -3125 3082 0
-3101 -3126 3083 0
-3102 -3109 3067 0
-3102 -3110 3068 0
-3102 -3111 3069 0
-3102 -3112 3070 0
-3102 -3113 3071 0
-3102 -3114 3072 0
-3102 -3115 3073 0
-3102 -3116 3074 0
-3102 -3117 3075 0
-3102 -3118 3076 0
-3102 -3119 3077 0
-3102 -3120 3078 0
-3102 -3121 3079 0
-3102 -3122 3080 0
-3102 -3123 3081 0
-3102 -3124 3082 0
-3102 -3125 3083 0
-3102 -3126 3084 0
-3103 -3109 3068 0
-3103 -3110 3069 0
-3103 -3111 3070 0
-3103 -3112 3071 0
-3103 -3113 3072 0
-3103 -3114 3073 0
-3103 -3115 3074 0
-3103 -3116 3075 0
-3103 -3117 3076 0
-3103 -3118 3077 0
-3103 -3119 3078 0
-3103 -3120 3079 0
-3103 -3121 3080 0
-3103 -3122 3081 0
-3103 -3123 3082 0
-3103 -3124 3083 0
-3103 -3125 3084 0
-3103 -3126 3085 0
-3104 -3109 3069 0
-3104 -3110 3070 0
-3104 -3111 3071 0
-3104 -3112 3072 0
-3104 -3113 3073 0
-3104 -3114 3074 0
-3104 -3115 3075 0
-3104 -3116 3076 0
-3104 -3117 3077 0
-3104 -3118 3078 0
-3104 -3119 3079 0
-3104 -3120 3080 0
-3104 -3121 3081 0
-3104 -3122 3082 0
-3104 -3123 3083 0
-3104 -3124 3084 0
-3104 -3125 3085 0
-3104 -3126 3086 0
-3105 -3109 3070 0
-3105 -3110 3071 0
-3105 -3111 3072 0
-3105 -3112 3073 0
-3105 -3113 3074 0
-3105 -3114 3075 0
-3105 -3115 3076 0
-3105 -3116 3077 0
-3105 -3117 3078 0
-3105 -3118 3079 0
-3105 -3119 3080 0
-3105 -3120 3081 0
-3105 -3121 3082 0
-3105 -3122 3083 0
-3105 -3123 3084 0
-3105 -3124 3085 0
-3105 -3125 3086 0
-3105 -3126 3087 0
-3106 -3109 3071 0
-3106 -3110 3072 0
-3106 -3111 3073 0
-3106 -3112 3074 0
-3106 -3113 3075 0
-3106 -3114 3076 0
-3106 -3115 3077 0
-3106 -3116 3078 0
-3106 -3117 3079 0
-3106 -3118 3080 0
-3106 -3119 3081 0
-3106 -3120 3082 0
-3106 -3121 3083 0
-3106 -3122 3084 0
-3106 -3123 3085 0
-3106 -3124 3086 0
-3106 -3125 3087 0
-3106 -3126 3088 0
-3107 -3109 3072 0
-3107 -3110 3073 0
-3107 -3111 3074 0
-3107 -3112 3075 0
-3107 -3113 3076 0
-3107 -3114 3077 0
-3107 -3115 3078 0
-3107 -3116 3079 0
-3107 -3117 3080 0
-3107 -3118 3081 0
-3107 -3119 3082 0
-3107 -3120 3083 0
-3107 -3121 3084 0
-3107 -3122 3085 0
-3107 -3123 3086 0
-3107 -3124 3087 0
-3107 -3125 3088 0
-3107 -3126 3089 0
-3108 -3109 3073 0
-3108 -3110 3074 0
-3108 -3111 3075 0
-3108 -3112 3076 0
-3108 -3113 3077 0
-3108 -3114 3078 0
-3108 -3115 3079 0
-3108 -3116 3080 0
-3108 -3117 3081 0
-3108 -3118 3082 0
-3108 -3119 3083 0
-3108 -3120 3084 0
-3108 -3121 3085 0
-3108 -3122 3086 0
-3108 -3123 3087 0
-3108 -3124 3088 0
-3108 -3125 3089 0
-3108 -3126 3090 0
-3136 3109 0
-3137 3110 0
-3138 3111 0
-3139 3112 0
-3140 3113 0
-3141 3114 0
-3142 3115 0
-3143 3116 0
-3144 3117 0
-3127 3109 0
-3128 3110 0
-3129 3111 0
-3130 3112 0
-3131 3113 0
-3132 3114 0
-3133 3115 0
-3134 3116 0
-3135 3117 0
-3127 -3136 3110 0
-3127 -3137 3111 0
-3127 -3138 3112 0
-3127 -3139 3113 0
-3127 -3140 3114 0
-3127 -3141 3115 0
-3127 -3142 3116 0
-3127 -3143 3117 0
-3127 -3144 3118 0
-3128 -3136 3111 0
-3128 -3137 3112 0
-3128 -3138 3113 0
-3128 -3139 3114 0
-3128 -3140 3115 0
-3128 -3141 3116 0
-3128 -3142 3117 0
-3128 -3143 3118 0
-3128 -3144 3119 0
-3129 -3136 3112 0
-3129 -3137 3113 0
-3129 -3138 3114 0
-3129 -3139 3115 0
-3129 -3140 3116 0
-3129 -3141 3117 0
-3129 -3142 3118 0
-3129 -3143 3119 0
-3129 -3144 3120 0
-3130 -3136 3113 0
-3130 -3137 3114 0
-3130 -3138 3115 0
-3130 -3139 3116 0
-3130 -3140 3117 0
-3130 -3141 3118 0
-3130 -3142 3119 0
-3130 -3143 3120 0
-3130 -3144 3121 0
-3131 -3136 3114 0
-3131 -3137 3115 0
-3131 -3138 3116 0
-3131 -3139 3117 0
-3131 -3140 3118 0
-3131 -3141 3119 0
-3131 -3142 3120 0
-3131 -3143 3121 0
-3131 -3144 3122 0
-3132 -3136 3115 0
-3132 -3137 3116 0
-3132 -3138 3117 0
-3132 -3139 3118 0
-3132 -3140 3119 0
-3132 -3141 3120 0
-3132 -3142 3121 0
-3132 -3143 3122 0
-3132 -3144 3123 0
-3133 -3136 3116 0
-3133 -3137 3117 0
-3133 -3138 3118 0
-3133 -3139 3119 0
-3133 -3140 3120 0
-3133 -3141 3121 0
-3133 -3142 3122 0
-3133 -3143 3123 0
-3133 -3144 3124 0
-3134 -3136 3117 0
-3134 -3137 3118 0
-3134 -3138 3119 0
-3134 -3139 3120 0
-3134 -3140 3121 0
-3134 -3141 3122 0
-3134 -3142 3123 0
-3134 -3143 3124 0
-3134 -3144 3125 0
-3135 -3136 3118 0
-3135 -3137 3119 0
-3135 -3138 3120 0
-3135 -3139 3121 0
-3135 -3140 3122 0
-3135 -3141 3123 0
-3135 -3142 3124 0
-3135 -3143 3125 0
-3135 -3144 3126 0
-3150 3136 0
-3151 3137 0
-3152 3138 0
-3153 3139 0
-3145 3136 0
-3146 3137 0
-3147 3138 0
-3148 3139 0
-3149 3140 0
-3145 -3150 3137 0
-3145 -3151 3138 0
-3145 -3152 3139 0
-3145 -3153 3140 0
-3146 -3150 3138 0
-3146 -3151 3139 0
-3146 -3152 3140 0
-3146 -3153 3141 0
-3147 -3150 3139 0
-3147 -3151 3140 0
-3147 -3152 3141 0
-3147 -3153 3142 0
-3148 -3150 3140 0
-3148 -3151 3141 0
-3148 -3152 3142 0
-3148 -3153 3143 0
-3149 -3150 3141 0
-3149 -3151 3142 0
-3149 -3152 3143 0
-3149 -3153 3144 0
-3156 3150 0
-3157 3151 0
-3154 3150 0
-3155 3151 0
-3154 -3156 3151 0
-3154 -3157 3152 0
-3155 -3156 3152 0
-3155 -3157 3153 0
-3054 3156 0
-3053 3156 0
-3053 -3054 3157 0
-3050 3154 0
-3049 3154 0
-3049 -3050 3155 0
-3161 3145 0
-3162 3146 0
-3158 3145 0
-3159 3146 0
-3160 3147 0
-3158 -3161 3146 0
-3158 -3162 3147 0
-3159 -3161 3147 0
-3159 -3162 3148 0
-3160 -3161 3148 0
-3160 -3162 3149 0
-3046 3161 0
-3045 3161 0
-3045 -3046 3162 0
-3042 3158 0
-3163 3158 0
-3164 3159 0
-3163 -3042 3159 0
-3164 -3042 3160 0
-3041 3163 0
-3038 3163 0
-3038 -3041 3164 0
-3170 3127 0
-3171 3128 0
-3172 3129 0
-3173 3130 0
-3165 3127 0
-3166 3128 0
-3167 3129 0
-3168 3130 0
-3169 3131 0
-3165 -3170 3128 0
-3165 -3171 3129 0
-3165 -3172 3130 0
-3165 -3173 3131 0
-3166 -3170 3129 0
-3166 -3171 3130 0
-3166 -3172 3131 0
-3166 -3173 3132 0
-3167 -3170 3130 0
-3167 -3171 3131 0
-3167 -3172 3132 0
-3167 -3173 3133 0
-3168 -3170 3131 0
-3168 -3171 3132 0
-3168 -3172 3133 0
-3168 -3173 3134 0
-3169 -3170 3132 0
-3169 -3171 3133 0
-3169 -3172 3134 0
-3169 -3173 3135 0
-3176 3170 0
-3177 3171 0
-3174 3170 0
-3175 3171 0
-3174 -3176 3171 0
-3174 -3177 3172 0
-3175 -3176 3172 0
-3175 -3177 3173 0
-3037 3176 0
-3034 3176 0
-3034 -3037 3177 0
-3033 3174 0
-3030 3174 0
-3030 -3033 3175 0
-3181 3165 0
-3182 3166 0
-3178 3165 0
-3179 3166 0
-3180 3167 0
-3178 -3181 3166 0
-3178 -3182 3167 0
-3179 -3181 3167 0
-3179 -3182 3168 0
-3180 -3181 3168 0
-3180 -3182 3169 0
-3029 3181 0
-3026 3181 0
-3026 -3029 3182 0
-3025 3178 0
-3183 3178 0
-3184 3179 0
-3183 -3025 3179 0
-3184 -3025 3180 0
-3022 3183 0
-3021 3183 0
-3021 -3022 3184 0
-3194 3091 0
-3195 3092 0
-3196 3093 0
-3197 3094 0
-3198 3095 0
-3199 3096 0
-3200 3097 0
-3201 3098 0
-3202 3099 0
-3185 3091 0
-3186 3092 0
-3187 3093 0
-3188 3094 0
-3189 3095 0
-3190 3096 0
-3191 3097 0
-3192 3098 0
-3193 3099 0
-3185 -3194 3092 0
-3185 -3195 3093 0
-3185 -3196 3094 0
-3185 -3197 3095 0
-3185 -3198 3096 0
-3185 -3199 3097 0
-3185 -3200 3098 0
-3185 -3201 3099 0
-3185 -3202 3100 0
-3186 -3194 3093 0
-3186 -3195 3094 0
-3186 -3196 3095 0
-3186 -3197 3096 0
-3186 -3198 3097 0
-3186 -3199 3098 0
-3186 -3200 3099 0
-3186 -3201 3100 0
-3186 -3202 3101 0
-3187 -3194 3094 0
-3187 -3195 3095 0
-3187 -3196 3096 0
-3187 -3197 3097 0
-3187 -3198 3098 0
-3187 -3199 3099 0
-3187 -3200 3100 0
-3187 -3201 3101 0
-3187 -3202 3102 0
-3188 -3194 3095 0
-3188 -3195 3096 0
-3188 -3196 3097 0
-3188 -3197 3098 0
-3188 -3198 3099 0
-3188 -3199 3100 0
-3188 -3200 3101 0
-3188 -3201 3102 0
-3188 -3202 3103 0
-3189 -3194 3096 0
-3189 -3195 3097 0
-3189 -3196 3098 0
-3189 -3197 3099 0
-3189 -3198 3100 0
-3189 -3199 3101 0
-3189 -3200 3102 0
-3189 -3201 3103 0
-3189 -3202 3104 0
-3190 -3194 3097 0
-3190 -3195 3098 0
-3190 -3196 3099 0
-3190 -3197 3100 0
-3190 -3198 3101 0
-3190 -3199 3102 0
-3190 -3200 3103 0
-3190 -3201 3104 0
-3190 -3202 3105 0
-3191 -3194 3098 0
-3191 -3195 3099 0
-3191 -3196 3100 0
-3191 -3197 3101 0
-3191 -3198 3102 0
-3191 -3199 3103 0
-3191 -3200 3104 0
-3191 -3201 3105 0
-3191 -3202 3106 0
-3192 -3194 3099 0
-3192 -3195 3100 0
-3192 -3196 3101 0
-3192 -3197 3102 0
-3192 -3198 3103 0
-3192 -3199 3104 0
-3192 -3200 3105 0
-3192 -3201 3106 0
-3192 -3202 3107 0
-3193 -3194 3100 0
-3193 -3195 3101 0
-3193 -3196 3102 0
-3193 -3197 3103 0
-3193 -3198 3104 0
-3193 -3199 3105 0
-3193 -3200 3106 0
-3193 -3201 3107 0
-3193 -3202 3108 0
-3208 3194 0
-3209 3195 0
-3210 3196 0
-3211 3197 0
-3203 3194 0
-3204 3195 0
-3205 3196 0
-3206 3197 0
-3207 3198 0
-3203 -3208 3195 0
-3203 -3209 3196 0
-3203 -3210 3197 0
-3203 -3211 3198 0
-3204 -3208 3196 0
-3204 -3209 3197 0
-3204 -3210 3198 0
-3204 -3211 3199 0
-3205 -3208 3197 0
-3205 -3209 3198 0
-3205 -3210 3199 0
-3205 -3211 3200 0
-3206 -3208 3198 0
-3206 -3209 3199 0
-3206 -3210 3200 0
-3206 -3211 3201 0
-3207 -3208 3199 0
-3207 -3209 3200 0
-3207 -3210 3201 0
-3207 -3211 3202 0
-3214 3208 0
-3215 3209 0
-3212 3208 0
-3213 3209 0
-3212 -3214 3209 0
-3212 -3215 3210 0
-3213 -3214 3210 0
-3213 -3215 3211 0
3052 3214 0
3051 3214 0
3051 3052 3215 0
3048 3212 0
3047 3212 0
3047 3048 3213 0
-3219 3203 0
-3220 3204 0
-3216 3203 0
-3217 3204 0
-3218 3205 0
-3216 -3219 3204 0
-3216 -3220 3205 0
-3217 -3219 3205 0
-3217 -3220 3206 0
-3218 -3219 3206 0
-3218 -3220 3207 0
3044 3219 0
3043 3219 0
3043 3044 3220 0
3040 3216 0
-3221 3216 0
-3222 3217 0
-3221 3040 3217 0
-3222 3040 3218 0
3039 3221 0
3036 3221 0
3036 3039 3222 0
-3228 3185 0
-3229 3186 0
-3230 3187 0
-3231 3188 0
-3223 3185 0
-3224 3186 0
-3225 3187 0
-3226 3188 0
-3227 3189 0
-3223 -3228 3186 0
-3223 -3229 3187 0
-3223 -3230 3188 0
-3223 -3231 3189 0
-3224 -3228 3187 0
-3224 -3229 3188 0
-3224 -3230 3189 0
-3224 -3231 3190 0
-3225 -3228 3188 0
-3225 -3229 3189 0
-3225 -3230 3190 0
-3225 -3231 3191 0
-3226 -3228 3189 0
-3226 -3229 3190 0
-3226 -3230 3191 0
-3226 -3231 3192 0
-3227 -3228 3190 0
-3227 -3229 3191 0
-3227 -3230 3192 0
-3227 -3231 3193 0
-3234 3228 0
-3235 3229 0
-3232 3228 0
-3233 3229 0
-3232 -3234 3229 0
-3232 -3235 3230 0
-3233 -3234 3230 0
-3233 -3235 3231 0
3035 3234 0
3032 3234 0
3032 3035 3235 0
3031 3232 0
3028 3232 0
3028 3031 3233 0
-3239 3223 0
-3240 3224 0
-3236 3223 0
-3237 3224 0
-3238 3225 0
-3236 -3239 3224 0
-3236 -3240 3225 0
-3237 -3239 3225 0
-3237 -3240 3226 0
-3238 -3239 3226 0
-3238 -3240 3227 0
3027 3239 0
3024 3239 0
3024 3027 3240 0
3023 3236 0
-3241 3236 0
-3242 3237 0
-3241 3023 3237 0
-3242 3023 3238 0
3020 3241 0
3019 3241 0
3019 3020 3242 0
-3074 0
-3297 3243 0
-3298 3244 0
-3299 3245 0
-3300 3246 0
-3301 3247 0
-3302 3248 0
-3303 3249 0
-3304 3250 0
-3305 3251 0
-3306 3252 0
-3307 3253 0
-3308 3254 0
-3309 3255 0
-3310 3256 0
-3311 3257 0
-3312 3258 0
-3313 3259 0
-3314 3260 0
-3279 3243 0
-3280 3244 0
-3281 3245 0
-3282 3246 0
-3283 3247 0
-3284 3248 0
-3285 3249 0
-3286 3250 0
-3287 3251 0
-3288 3252 0
-3289 3253 0
-3290 3254 0
-3291 3255 0
-3292 3256 0
-3293 3257 0
-3294 3258 0
-3295 3259 0
-3296 3260 0
-3279 -3297 3244 0
-3279 -3298 3245 0
-3279 -3299 3246 0
-3279 -3300 3247 0
-3279 -3301 3248 0
-3279 -3302 3249 0
-3279 -3303 3250 0
-3279 -3304 3251 0
-3279 -3305 3252 0
-3279 -3306 3253 0
-3279 -3307 3254 0
-3279 -3308 3255 0
-3279 -3309 3256 0
-3279 -3310 3257 0
-3279 -3311 3258 0
-3279 -3312 3259 0
-3279 -3313 3260 0
-3279 -3314 3261 0
-3280 -3297 3245 0
-3280 -3298 3246 0
-3280 -3299 3247 0
-3280 -3300 3248 0
-3280 -3301 3249 0
-3280 -3302 3250 0
-3280 -3303 3251 0
-3280 -3304 3252 0
-3280 -3305 3253 0
-3280 -3306 3254 0
-3280 -3307 3255 0
-3280 -3308 3256 0
-3280 -3309 3257 0
-3280 -3310 3258 0
-3280 -3311 3259 0
-3280 -3312 3260 0
-3280 -3313 3261 0
-3280 -3314 3262 0
-3281 -3297 3246 0
-3281 -3298 3247 0
-3281 -3299 3248 0
-3281 -3300 3249 0
-3281 -3301 3250 0
-3281 -3302 3251 0
-3281 -3303 3252 0
-3281 -3304 3253 0
-3281 -3305 3254 0
-3281 -3306 3255 0
-3281 -3307 3256 0
-3281 -3308 3257 0
-3281 -3309 3258 0
-3281 -3310 3259 0
-3281 -3311 3260 0
-3281 -3312 3261 0
-3281 -3313 3262 0
-3281 -3314 3263 0
-3282 -3297 3247 0
-3282 -3298 3248 0
-3282 -3299 3249 0
-3282 -3300 3250 0
-3282 -3301 3251 0
-3282 -3302 3252 0
-3282 -3303 3253 0
-3282 -3304 3254 0
-3282 -3305 3255 0
-3282 -3306 3256 0
-3282 -3307 3257 0
-3282 -3308 3258 0
-3282 -3309 3259 0
-3282 -3310 3260 0
-3282 -3311 3261 0
-3282 -3312 3262 0
-3282 -3313 3263 0
-3282 -3314 3264 0
-3283 -3297 3248 0
-3283 -3298 3249 0
-3283 -3299 3250 0
-3283 -3300 3251 0
-3283 -3301 3252 0
-3283 -3302 3253 0
-3283 -3303 3254 0
-3283 -3304 3255 0
-3283 -3305 3256 0
-3283 -3306 3257 0
-3283 -3307 3258 0
-3283 -3308 3259 0
-3283 -3309 3260 0
-3283 -3310 3261 0
-3283 -3311 3262 0
-3283 -3312 3263 0
-3283 -3313 3264 0
-3283 -3314 3265 0
-3284 -3297 3249 0
-3284 -3298 3250 0
-3284 -3299 3251 0
-3284 -3300 3252 0
-3284 -3301 3253 0
-3284 -3302 3254 0
-3284 -3303 3255 0
-3284 -3304 3256 0
-3284 -3305 3257 0
-3284 -3306 3258 0
-3284 -3307 3259 0
-3284 -3308 3260 0
-3284 -3309 3261 0
-3284 -3310 3262 0
-3284 -3311 3263 0
-3284 -3312 3264 0
-3284 -3313 3265 0
-3284 -3314 3266 0
-3285 -3297 3250 0
-3285 -3298 3251 0
-3285 -3299 3252 0
-3285 -3300 3253 0
-3285 -3301 3254 0
-3285 -3302 3255 0
-3285 -3303 3256 0
-3285 -3304 3257 0
-3285 -3305 3258 0
-3285 -3306 3259 0
-3285 -3307 3260 0
-3285 -3308 3261 0
-3285 -3309 3262 0
-3285 -3310 3263 0
-3285 -3311 3264 0
-3285 -3312 3265 0
-3285 -3313 3266 0
-3285 -3314 3267 0
-3286 -3297 3251 0
-3286 -3298 3252 0
-3286 -3299 3253 0
-3286 -3300 3254 0
-3286 -3301 3255 0
-3286 -3302 3256 0
-3286 -3303 3257 0
-3286 -3304 3258 0
-3286 -3305 3259 0
-3286 -3306 3260 0
-3286 -3307 3261 0
-3286 -3308 3262 0
-3286 -3309 3263 0
-3286 -3310 3264 0
-3286 -3311 3265 0
-3286 -3312 3266 0
-3286 -3313 3267 0
-3286 -3314 3268 0
-3287 -3297 3252 0
-3287 -3298 3253 0
-3287 -3299 3254 0
-3287 -3300 3255 0
-3287 -3301 3256 0
-3287 -3302 3257 0
-3287 -3303 3258 0
-3287 -3304 3259 0
-3287 -3305 3260 0
-3287 -3306 3261 0
-3287 -3307 3262 0
-3287 -3308 3263 0
-3287 -3309 3264 0
-3287 -3310 3265 0
-3287 -3311 3266 0
-3287 -3312 3267 0
-3287 -3313 3268 0
-3287 -3314 3269 0
-3288 -3297 3253 0
-3288 -3298 3254 0
-3288 -3299 3255 0
-3288 -3300 3256 0
-3288 -3301 3257 0
-3288 -3302 3258 0
-3288 -3303 3259 0
-3288 -3304 3260 0
-3288 -3305 3261 0
-3288 -3306 3262 0
-3288 -3307 3263 0
-3288 -3308 3264 0
-3288 -3309 3265 0
-3288 -3310 3266 0
-3288 -3311 3267 0
-3288 -3312 3268 0
-3288 -3313 3269 0
-3288 -3314 3270 0
-3289 -3297 3254 0
-3289 -3298 3255 0
-3289 -3299 3256 0
-3289 -3300 3257 0
-3289 -3301 3258 0
-3289 -3302 3259 0
-3289 -3303 3260 0
-3289 -3304 3261 0
-3289 -3305 3262 0
-3289 -3306 3263 0
-3289 -3307 3264 0
-3289 -3308 3265 0
-3289 -3309 3266 0
-3289 -3310 3267 0
-3289 -3311 3268 0
-3289 -3312 3269 0
-3289 -3313 3270 0
-3289 -3314 3271 0
-3290 -3297 3255 0
-3290 -3298 3256 0
-3290 -3299 3257 0
-3290 -3300 3258 0
-3290 -3301 3259 0
-3290 -3302 3260 0
-3290 -3303 3261 0
-3290 -3304 3262 0
-3290 -3305 3263 0
-3290 -3306 3264 0
-3290 -3307 3265 0
-3290 -3308 3266 0
-3290 -3309 3267 0
-3290 -3310 3268 0
-3290 -3311 3269 0
-3290 -3312 3270 0
-3290 -3313 3271 0
-3290 -3314 3272 0
-3291 -3297 3256 0
-3291 -3298 3257 0
-3291 -3299 3258 0
-3291 -3300 3259 0
-3291 -3301 3260 0
-3291 -3302 3261 0
-3291 -3303 3262 0
-3291 -3304 3263 0
-3291 -3305 3264 0
-3291 -3306 3265 0
-3291 -3307 3266 0
-3291 -3308 3267 0
-3291 -3309 3268 0
-3291 -3310 3269 0
-3291 -3311 3270 0
-3291 -3312 3271 0
-3291 -3313 3272 0
-3291 -3314 3273 0
-3292 -3297 3257 0
-3292 -3298 3258 0
-3292 -3299 3259 0
-3292 -3300 3260 0
-3292 -3301 3261 0
-3292 -3302 3262 0
-3292 -3303 3263 0
-3292 -3304 3264 0
-3292 -3305 3265 0
-3292 -3306 3266 0
-3292 -3307 3267 0
-3292 -3308 3268 0
-3292 -3309 3269 0
-3292 -3310 3270 0
-3292 -3311 3271 0
-3292 -3312 3272 0
-3292 -3313 3273 0
-3292 -3314 3274 0
-3293 -3297 3258 0
-3293 -3298 3259 0
-3293 -3299 3260 0
-3293 -3300 3261 0
-3293 -3301 3262 0
-3293 -3302 3263 0
-3293 -3303 3264 0
-3293 -3304 3265 0
-3293 -3305 3266 0
-3293 -3306 3267 0
-3293 -3307 3268 0
-3293 -3308 3269 0
-3293 -3309 3270 0
-3293 -3310 3271 0
-3293 -3311 3272 0
-3293 -3312 3273 0
-3293 -3313 3274 0
-3293 -3314 3275 0
-3294 -3297 3259 0
-3294 -3298 3260 0
-3294 -3299 3261 0
-3294 -3300 3262 0
-3294 -3301 3263 0
-3294 -3302 3264 0
-3294 -3303 3265 0
-3294 -3304 3266 0
-3294 -3305 3267 0
-3294 -3306 3268 0
-3294 -3307 3269 0
-3294 -3308 3270 0
-3294 -3309 3271 0
-3294 -3310 3272 0
-3294 -3311 3273 0
-3294 -3312 3274 0
-3294 -3313 3275 0
-3294 -3314 3276 0
-3295 -3297 3260 0
-3295 -3298 3261 0
-3295 -3299 3262 0
-3295 -3300 3263 0
-3295 -3301 3264 0
-3295 -3302 3265 0
-3295 -3303 3266 0
-3295 -3304 3267 0
-3295 -3305 3268 0
-3295 -3306 3269 0
-3295 -3307 3270 0
-3295 -3308 3271 0
-3295 -3309 3272 0
-3295 -3310 3273 0
-3295 -3311 3274 0
-3295 -3312 3275 0
-3295 -3313 3276 0
-3295 -3314 3277 0
-3296 -3297 3261 0
-3296 -3298 3262 0
-3296 -3299 3263 0
-3296 -3300 3264 0
-3296 -3301 3265 0
-3296 -3302 3266 0
-3296 -3303 3267 0
-3296 -3304 3268 0
-3296 -3305 3269 0
-3296 -3306 3270 0
-3296 -3307 3271 0
-3296 -3308 3272 0
-3296 -3309 3273 0
-3296 -3310 3274 0
-3296 -3311 3275 0
-3296 -3312 3276 0
-3296 -3313 3277 0
-3296 -3314 3278 0
-3324 3297 0
-3325 3298 0
-3326 3299 0
-3327 3300 0
-3328 3301 0
-3329 3302 0
-3330 3303 0
-3331 3304 0
-3332 3305 0
-3315 3297 0
-3316 3298 0
-3317 3299 0
-3318 3300 0
-3319 3301 0
-3320 3302 0
-3321 3303 0
-3322 3304 0
-3323 3305 0
-3315 -3324 3298 0
-3315 -3325 3299 0
-3315 -3326 3300 0
-3315 -3327 3301 0
-3315 -3328 3302 0
-3315 -3329 3303 0
-3315 -3330 3304 0
-3315 -3331 3305 0
-3315 -3332 3306 0
-3316 -3324 3299 0
-3316 -3325 3300 0
-3316 -3326 3301 0
-3316 -3327 3302 0
-3316 -3328 3303 0
-3316 -3329 3304 0
-3316 -3330 3305 0
-3316 -3331 3306 0
-3316 -3332 3307 0
-3317 -3324 3300 0
-3317 -3325 3301 0
-3317 -3326 3302 0
-3317 -3327 3303 0
-3317 -3328 3304 0
-3317 -3329 3305 0
-3317 -3330 3306 0
-3317 -3331 3307 0
-3317 -3332 3308 0
-3318 -3324 3301 0
-3318 -3325 3302 0
-3318 -3326 3303 0
-3318 -3327 3304 0
-3318 -3328 3305 0
-3318 -3329 3306 0
-3318 -3330 3307 0
-3318 -3331 3308 0
-3318 -3332 3309 0
-3319 -3324 3302 0
-3319 -3325 3303 0
-3319 -3326 3304 0
-3319 -3327 3305 0
-3319 -3328 3306 0
-3319 -3329 3307 0
-3319 -3330 3308 0
-3319 -3331 3309 0
-3319 -3332 3310 0
-3320 -3324 3303 0
-3320 -3325 3304 0
-3320 -3326 3305 0
-3320 -3327 3306 0
-3320 -3328 3307 0
-3320 -3329 3308 0
-3320 -3330 3309 0
-3320 -3331 3310 0
-3320 -3332 3311 0
-3321 -3324 3304 0
-3321 -3325 3305 0
-3321 -3326 3306 0
-3321 -3327 3307 0
-3321 -3328 3308 0
-3321 -3329 3309 0
-3321 -3330 3310 0
-3321 -3331 3311 0
-3321 -3332 3312 0
-3322 -3324 3305 0
-3322 -3325 3306 0
-3322 -3326 3307 0
-3322 -3327 3308 0
-3322 -3328 3309 0
-3322 -3329 3310 0
-3322 -3330 3311 0
-3322 -3331 3312 0
-3322 -3332 3313 0
-3323 -3324 3306 0
-3323 -3325 3307 0
-3323 -3326 3308 0
-3323 -3327 3309 0
-3323 -3328 3310 0
-3323 -3329 3311 0
-3323 -3330 3312 0
-3323 -3331 3313 0
-3323 -3332 3314 0
-3338 3324 0
-3339 3325 0
-3340 3326 0
-3341 3327 0
-3333 3324 0
-3334 3325 0
-3335 3326 0
-3336 3327 0
-3337 3328 0
-3333 -3338 3325 0
-3333 -3339 3326 0
-3333 -3340 3327 0
-3333 -3341 3328 0
-3334 -3338 3326 0
-3334 -3339 3327 0
-3334 -3340 3328 0
-3334 -3341 3329 0
-3335 -3338 3327 0
-3335 -3339 3328 0
-3335 -3340 3329 0
-3335 -3341 3330 0
-3336 -3338 3328 0
-3336 -3339 3329 0
-3336 -3340 3330 0
-3336 -3341 3331 0
-3337 -3338 3329 0
-3337 -3339 3330 0
-3337 -3340 3331 0
-3337 -3341 3332 0
-3344 3338 0
-3345 3339 0
-3342 3338 0
-3343 3339 0
-3342 -3344 3339 0
-3342 -3345 3340 0
-3343 -3344 3340 0
-3343 -3345 3341 0
3054 3344 0
3053 3344 0
3053 3054 3345 0
3050 3342 0
3049 3342 0
3049 3050 3343 0
-3349 3333 0
-3350 3334 0
-3346 3333 0
-3347 3334 0
-3348 3335 0
-3346 -3349 3334 0
-3346 -3350 3335 0
-3347 -3349 3335 0
-3347 -3350 3336 0
-3348 -3349 3336 0
-3348 -3350 3337 0
3046 3349 0
3045 3349 0
3045 3046 3350 0
3042 3346 0
-3351 3346 0
-3352 3347 0
-3351 3042 3347 0
-3352 3042 3348 0
3041 3351 0
3038 3351 0
3038 3041 3352 0
-3358 3315 0
-3359 3316 0
-3360 3317 0
-3361 3318 0
-3353 3315 0
-3354 3316 0
-3355 3317 0
-3356 3318 0
-3357 3319 0
-3353 -3358 3316 0
-3353 -3359 3317 0
-3353 -3360 3318 0
-3353 -3361 3319 0
-3354 -3358 3317 0
-3354 -3359 3318 0
-3354 -3360 3319 0
-3354 -3361 3320 0
-3355 -3358 3318 0
-3355 -3359 3319 0
-3355 -3360 3320 0
-3355 -3361 3321 0
-3356 -3358 3319 0
-3356 -3359 3320 0
-3356 -3360 3321 0
-3356 -3361 3322 0
-3357 -3358 3320 0
-3357 -3359 3321 0
-3357 -3360 3322 0
-3357 -3361 3323 0
-3364 3358 0
-3365 3359 0
-3362 3358 0
-3363 3359 0
-3362 -3364 3359 0
-3362 -3365 3360 0
-3363 -3364 3360 0
-3363 -3365 3361 0
3037 3364 0
3034 3364 0
3034 3037 3365 0
3033 3362 0
3030 3362 0
3030 3033 3363 0
-3369 3353 0
-3370 3354 0
-3366 3353 0
-3367 3354 0
-3368 3355 0
-3366 -3369 3354 0
-3366 -3370 3355 0
-3367 -3369 3355 0
-3367 -3370 3356 0
-3368 -3369 3356 0
-3368 -3370 3357 0
3029 3369 0
3026 3369 0
3026 3029 3370 0
3025 3366 0
-3371 3366 0
-3372 3367 0
-3371 3025 3367 0
-3372 3025 3368 0
3022 3371 0
3021 3371 0
3021 3022 3372 0
-3382 3279 0
-3383 3280 0
-3384 3281 0
-3385 3282 0
-3386 3283 0
-3387 3284 0
-3388 3285 0
-3389 3286 0
-3390 3287 0
-3373 3279 0
-3374 3280 0
-3375 3281 0
-3376 3282 0
-3377 3283 0
-3378 3284 0
-3379 3285 0
-3380 3286 0
-3381 3287 0
-3373 -3382 3280 0
-3373 -3383 3281 0
-3373 -3384 3282 0
-3373 -3385 3283 0
-3373 -3386 3284 0
-3373 -3387 3285 0
-3373 -3388 3286 0
-3373 -3389 3287 0
-3373 -3390 3288 0
-3374 -3382 3281 0
-3374 -3383 3282 0
-3374 -3384 3283 0
-3374 -3385 3284 0
-3374 -3386 3285 0
-3374 -3387 3286 0
-3374 -3388 3287 0
-3374 -3389 3288 0
-3374 -3390 3289 0
-3375 -3382 3282 0
-3375 -3383 3283 0
-3375 -3384 3284 0
-3375 -3385 3285 0
-3375 -3386 3286 0
-3375 -3387 3287 0
-3375 -3388 3288 0
-3375 -3389 3289 0
-3375 -3390 3290 0
-3376 -3382 3283 0
-3376 -3383 3284 0
-3376 -3384 3285 0
-3376 -3385 3286 0
-3376 -3386 3287 0
-3376 -3387 3288 0
-3376 -3388 3289 0
-3376 -3389 3290 0
-3376 -3390 3291 0
-3377 -3382 3284 0
-3377 -3383 3285 0
-3377 -3384 3286 0
-3377 -3385 3287 0
-3377 -3386 3288 0
-3377 -3387 3289 0
-3377 -3388 3290 0
-3377 -3389 3291 0
-3377 -3390 3292 0
-3378 -3382 3285 0
-3378 -3383 3286 0
-3378 -3384 3287 0
-3378 -3385 3288 0
-3378 -3386 3289 0
-3378 -3387 3290 0
-3378 -3388 3291 0
-3378 -3389 3292 0
-3378 -3390 3293 0
-3379 -3382 3286 0
-3379 -3383 3287 0
-3379 -3384 3288 0
-3379 -3385 3289 0
-3379 -3386 3290 0
-3379 -3387 3291 0
-3379 -3388 3292 0
-3379 -3389 3293 0
-3379 -3390 3294 0
-3380 -3382 3287 0
-3380 -3383 3288 0
-3380 -3384 3289 0
-3380 -3385 3290 0
-3380 -3386 3291 0
-3380 -3387 3292 0
-3380 -3388 3293 0
-3380 -3389 3294 0
-3380 -3390 3295 0
-3381 -3382 3288 0
-3381 -3383 3289 0
-3381 -3384 3290 0
-3381 -3385 3291 0
-3381 -3386 3292 0
-3381 -3387 3293 0
-3381 -3388 3294 0
-3381 -3389 3295 0
-3381 -3390 3296 0
-3396 3382 0
-3397 3383 0
-3398 3384 0
-3399 3385 0
-3391 3382 0
-3392 3383 0
-3393 3384 0
-3394 3385 0
-3395 3386 0
-3391 -3396 3383 0
-3391 -3397 3384 0
-3391 -3398 3385 0
-3391 -3399 3386 0
-3392 -3396 3384 0
-3392 -3397 3385 0
-3392 -3398 3386 0
-3392 -3399 3387 0
-3393 -3396 3385 0
-3393 -3397 3386 0
-3393 -3398 3387 0
-3393 -3399 3388 0
-3394 -3396 3386 0
-3394 -3397 3387 0
-3394 -3398 3388 0
-3394 -3399 3389 0
-3395 -3396 3387 0
-3395 -3397 3388 0
-3395 -3398 3389 0
-3395 -3399 3390 0
-3402 3396 0
-3403 3397 0
-3400 3396 0
-3401 3397 0
-3400 -3402 3397 0
-3400 -3403 3398 0
-3401 -3402 3398 0
-3401 -3403 3399 0
-3052 3402 0
-3051 3402 0
-3051 -3052 3403 0
-3048 3400 0
-3047 3400 0
-3047 -3048 3401 0
-3407 3391 0
-3408 3392 0
-3404 3391 0
-3405 3392 0
-3406 3393 0
-3404 -3407 3392 0
-3404 -3408 3393 0
-3405 -3407 3393 0
-3405 -3408 3394 0
-3406 -3407 3394 0
-3406 -3408 3395 0
-3044 3407 0
-3043 3407 0
-3043 -3044 3408 0
-3040 3404 0
-3409 3404 0
-3410 3405 0
-3409 -3040 3405 0
-3410 -3040 3406 0
-3039 3409 0
-3036 3409 0
-3036 -3039 3410 0
-3416 3373 0
-3417 3374 0
-3418 3375 0
-3419 3376 0
-3411 3373 0
-3412 3374 0
-3413 3375 0
-3414 3376 0
-3415 3377 0
-3411 -3416 3374 0
-3411 -3417 3375 0
-3411 -3418 3376 0
-3411 -3419 3377 0
-3412 -3416 3375 0
-3412 -3417 3376 0
-3412 -3418 3377 0
-3412 -3419 3378 0
-3413 -3416 3376 0
-3413 -3417 3377 0
-3413 -3418 3378 0
-3413 -3419 3379 0
-3414 -3416 3377 0
-3414 -3417 3378 0
-3414 -3418 3379 0
-3414 -3419 3380 0
-3415 -3416 3378 0
-3415 -3417 3379 0
-3415 -3418 3380 0
-3415 -3419 3381 0
-3422 3416 0
-3423 3417 0
-3420 3416 0
-3421 3417 0
-3420 -3422 3417 0
-3420 -3423 3418 0
-3421 -3422 3418 0
-3421 -3423 3419 0
-3035 3422 0
-3032 3422 0
-3032 -3035 3423 0
-3031 3420 0
-3028 3420 0
-3028 -3031 3421 0
-3427 3411 0
-3428 3412 0
-3424 3411 0
-3425 3412 0
-3426 3413 0
-3424 -3427 3412 0
-3424 -3428 3413 0
-3425 -3427 3413 0
-3425 -3428 3414 0
-3426 -3427 3414 0
-3426 -3428 3415 0
-3027 3427 0
-3024 3427 0
-3024 -3027 3428 0
-3023 3424 0
-3429 3424 0
-3430 3425 0
-3429 -3023 3425 0
-3430 -3023 3426 0
-3020 3429 0
-3019 3429 0
-3019 -3020 3430 0
-3260 0
