c instance SDS(9,8,-1,[3,3])
c cardinality encoding seqcounter
c p_g/n_g are exclusive; exact counts fix support and nonnegative augmentation sign
c negative coefficient at identity is fixed by translation symmetry
c AND auxiliaries are encoded by three clauses each (full equivalence)
c each nonidentity equation is sum(same)+sum(not cross)=lambda+2v
p cnf 5554 11370
-1 -10 0
-2 -11 0
-3 -12 0
-4 -13 0
-5 -14 0
-6 -15 0
-7 -16 0
-8 -17 0
-9 -18 0
1 19 0
-19 20 0
2 -19 21 0
-21 22 0
3 -21 23 0
-23 24 0
4 -23 25 0
-25 26 0
5 -25 27 0
-27 28 0
6 -27 0
2 20 0
-20 29 0
3 -20 22 0
-22 30 0
4 -22 24 0
-24 31 0
5 -24 26 0
-26 32 0
6 -26 28 0
-28 33 0
7 -28 0
3 29 0
-29 34 0
4 -29 30 0
-30 35 0
5 -30 31 0
-31 36 0
6 -31 32 0
-32 37 0
7 -32 33 0
-33 38 0
8 -33 0
4 34 0
5 -34 35 0
6 -35 36 0
7 -36 37 0
8 -37 38 0
9 -38 0
-1 39 0
-39 40 0
-2 -39 41 0
-41 42 0
-3 -41 43 0
-43 44 0
-4 -43 45 0
-45 46 0
-5 -45 0
-2 40 0
-40 47 0
-3 -40 42 0
-42 48 0
-4 -42 44 0
-44 49 0
-5 -44 46 0
-46 50 0
-6 -46 0
-3 47 0
-47 51 0
-4 -47 48 0
-48 52 0
-5 -48 49 0
-49 53 0
-6 -49 50 0
-50 54 0
-7 -50 0
-4 51 0
-51 55 0
-5 -51 52 0
-52 56 0
-6 -52 53 0
-53 57 0
-7 -53 54 0
-54 58 0
-8 -54 0
-5 55 0
-6 -55 56 0
-7 -56 57 0
-8 -57 58 0
-9 -58 0
10 59 0
-59 60 0
11 -59 61 0
-61 62 0
12 -61 63 0
-63 64 0
13 -63 65 0
-65 66 0
14 -65 67 0
-67 68 0
15 -67 0
11 60 0
-60 69 0
12 -60 62 0
-62 70 0
13 -62 64 0
-64 71 0
14 -64 66 0
-66 72 0
15 -66 68 0
-68 73 0
16 -68 0
12 69 0
-69 74 0
13 -69 70 0
-70 75 0
14 -70 71 0
-71 76 0
15 -71 72 0
-72 77 0
16 -72 73 0
-73 78 0
17 -73 0
13 74 0
14 -74 75 0
15 -75 76 0
16 -76 77 0
17 -77 78 0
18 -78 0
-10 79 0
-79 80 0
-11 -79 81 0
-81 82 0
-12 -81 83 0
-83 84 0
-13 -83 85 0
-85 86 0
-14 -85 0
-11 80 0
-80 87 0
-12 -80 82 0
-82 88 0
-13 -82 84 0
-84 89 0
-14 -84 86 0
-86 90 0
-15 -86 0
-12 87 0
-87 91 0
-13 -87 88 0
-88 92 0
-14 -88 89 0
-89 93 0
-15 -89 90 0
-90 94 0
-16 -90 0
-13 91 0
-91 95 0
-14 -91 92 0
-92 96 0
-15 -92 93 0
-93 97 0
-16 -93 94 0
-94 98 0
-17 -94 0
-14 95 0
-15 -95 96 0
-16 -96 97 0
-17 -97 98 0
-18 -98 0
10 0
-99 1 0
-99 3 0
99 -1 -3 0
-100 10 0
-100 12 0
100 -10 -12 0
-101 1 0
-101 12 0
101 -1 -12 0
-102 10 0
-102 3 0
102 -10 -3 0
-103 2 0
-103 1 0
103 -2 -1 0
-104 11 0
-104 10 0
104 -11 -10 0
-105 2 0
-105 10 0
105 -2 -10 0
-106 11 0
-106 1 0
106 -11 -1 0
-107 3 0
-107 2 0
107 -3 -2 0
-108 12 0
-108 11 0
108 -12 -11 0
-109 3 0
-109 11 0
109 -3 -11 0
-110 12 0
-110 2 0
110 -12 -2 0
-111 4 0
-111 6 0
111 -4 -6 0
-112 13 0
-112 15 0
112 -13 -15 0
-113 4 0
-113 15 0
113 -4 -15 0
-114 13 0
-114 6 0
114 -13 -6 0
-115 5 0
-115 4 0
115 -5 -4 0
-116 14 0
-116 13 0
116 -14 -13 0
-117 5 0
-117 13 0
117 -5 -13 0
-118 14 0
-118 4 0
118 -14 -4 0
-119 6 0
-119 5 0
119 -6 -5 0
-120 15 0
-120 14 0
120 -15 -14 0
-121 6 0
-121 14 0
121 -6 -14 0
-122 15 0
-122 5 0
122 -15 -5 0
-123 7 0
-123 9 0
123 -7 -9 0
-124 16 0
-124 18 0
124 -16 -18 0
-125 7 0
-125 18 0
125 -7 -18 0
-126 16 0
-126 9 0
126 -16 -9 0
-127 8 0
-127 7 0
127 -8 -7 0
-128 17 0
-128 16 0
128 -17 -16 0
-129 8 0
-129 16 0
129 -8 -16 0
-130 17 0
-130 7 0
130 -17 -7 0
-131 9 0
-131 8 0
131 -9 -8 0
-132 18 0
-132 17 0
132 -18 -17 0
-133 9 0
-133 17 0
133 -9 -17 0
-134 18 0
-134 8 0
134 -18 -8 0
99 135 0
-135 136 0
100 -135 137 0
-137 138 0
103 -137 139 0
-139 140 0
104 -139 141 0
-141 142 0
107 -141 143 0
-143 144 0
108 -143 145 0
-145 146 0
111 -145 147 0
-147 148 0
112 -147 149 0
-149 150 0
115 -149 151 0
-151 152 0
116 -151 153 0
-153 154 0
119 -153 155 0
-155 156 0
120 -155 157 0
-157 158 0
123 -157 159 0
-159 160 0
124 -159 161 0
-161 162 0
127 -161 163 0
-163 164 0
128 -163 165 0
-165 166 0
131 -165 167 0
-167 168 0
132 -167 169 0
-169 170 0
-101 -169 171 0
-171 172 0
-102 -171 0
100 136 0
-136 173 0
103 -136 138 0
-138 174 0
104 -138 140 0
-140 175 0
107 -140 142 0
-142 176 0
108 -142 144 0
-144 177 0
111 -144 146 0
-146 178 0
112 -146 148 0
-148 179 0
115 -148 150 0
-150 180 0
116 -150 152 0
-152 181 0
119 -152 154 0
-154 182 0
120 -154 156 0
-156 183 0
123 -156 158 0
-158 184 0
124 -158 160 0
-160 185 0
127 -160 162 0
-162 186 0
128 -162 164 0
-164 187 0
131 -164 166 0
-166 188 0
132 -166 168 0
-168 189 0
-101 -168 170 0
-170 190 0
-102 -170 172 0
-172 191 0
-105 -172 0
103 173 0
-173 192 0
104 -173 174 0
-174 193 0
107 -174 175 0
-175 194 0
108 -175 176 0
-176 195 0
111 -176 177 0
-177 196 0
112 -177 178 0
-178 197 0
115 -178 179 0
-179 198 0
116 -179 180 0
-180 199 0
119 -180 181 0
-181 200 0
120 -181 182 0
-182 201 0
123 -182 183 0
-183 202 0
124 -183 184 0
-184 203 0
127 -184 185 0
-185 204 0
128 -185 186 0
-186 205 0
131 -186 187 0
-187 206 0
132 -187 188 0
-188 207 0
-101 -188 189 0
-189 208 0
-102 -189 190 0
-190 209 0
-105 -190 191 0
-191 210 0
-106 -191 0
104 192 0
-192 211 0
107 -192 193 0
-193 212 0
108 -193 194 0
-194 213 0
111 -194 195 0
-195 214 0
112 -195 196 0
-196 215 0
115 -196 197 0
-197 216 0
116 -197 198 0
-198 217 0
119 -198 199 0
-199 218 0
120 -199 200 0
-200 219 0
123 -200 201 0
-201 220 0
124 -201 202 0
-202 221 0
127 -202 203 0
-203 222 0
128 -203 204 0
-204 223 0
131 -204 205 0
-205 224 0
132 -205 206 0
-206 225 0
-101 -206 207 0
-207 226 0
-102 -207 208 0
-208 227 0
-105 -208 209 0
-209 228 0
-106 -209 210 0
-210 229 0
-109 -210 0
107 211 0
-211 230 0
108 -211 212 0
-212 231 0
111 -212 213 0
-213 232 0
112 -213 214 0
-214 233 0
115 -214 215 0
-215 234 0
116 -215 216 0
-216 235 0
119 -216 217 0
-217 236 0
120 -217 218 0
-218 237 0
123 -218 219 0
-219 238 0
124 -219 220 0
-220 239 0
127 -220 221 0
-221 240 0
128 -221 222 0
-222 241 0
131 -222 223 0
-223 242 0
132 -223 224 0
-224 243 0
-101 -224 225 0
-225 244 0
-102 -225 226 0
-226 245 0
-105 -226 227 0
-227 246 0
-106 -227 228 0
-228 247 0
-109 -228 229 0
-229 248 0
-110 -229 0
108 230 0
-230 249 0
111 -230 231 0
-231 250 0
112 -231 232 0
-232 251 0
115 -232 233 0
-233 252 0
116 -233 234 0
-234 253 0
119 -234 235 0
-235 254 0
120 -235 236 0
-236 255 0
123 -236 237 0
-237 256 0
124 -237 238 0
-238 257 0
127 -238 239 0
-239 258 0
128 -239 240 0
-240 259 0
131 -240 241 0
-241 260 0
132 -241 242 0
-242 261 0
-101 -242 243 0
-243 262 0
-102 -243 244 0
-244 263 0
-105 -244 245 0
-245 264 0
-106 -245 246 0
-246 265 0
-109 -246 247 0
-247 266 0
-110 -247 248 0
-248 267 0
-113 -248 0
111 249 0
-249 268 0
112 -249 250 0
-250 269 0
115 -250 251 0
-251 270 0
116 -251 252 0
-252 271 0
119 -252 253 0
-253 272 0
120 -253 254 0
-254 273 0
123 -254 255 0
-255 274 0
124 -255 256 0
-256 275 0
127 -256 257 0
-257 276 0
128 -257 258 0
-258 277 0
131 -258 259 0
-259 278 0
132 -259 260 0
-260 279 0
-101 -260 261 0
-261 280 0
-102 -261 262 0
-262 281 0
-105 -262 263 0
-263 282 0
-106 -263 264 0
-264 283 0
-109 -264 265 0
-265 284 0
-110 -265 266 0
-266 285 0
-113 -266 267 0
-267 286 0
-114 -267 0
112 268 0
-268 287 0
115 -268 269 0
-269 288 0
116 -269 270 0
-270 289 0
119 -270 271 0
-271 290 0
120 -271 272 0
-272 291 0
123 -272 273 0
-273 292 0
124 -273 274 0
-274 293 0
127 -274 275 0
-275 294 0
128 -275 276 0
-276 295 0
131 -276 277 0
-277 296 0
132 -277 278 0
-278 297 0
-101 -278 279 0
-279 298 0
-102 -279 280 0
-280 299 0
-105 -280 281 0
-281 300 0
-106 -281 282 0
-282 301 0
-109 -282 283 0
-283 302 0
-110 -283 284 0
-284 303 0
-113 -284 285 0
-285 304 0
-114 -285 286 0
-286 305 0
-117 -286 0
115 287 0
-287 306 0
116 -287 288 0
-288 307 0
119 -288 289 0
-289 308 0
120 -289 290 0
-290 309 0
123 -290 291 0
-291 310 0
124 -291 292 0
-292 311 0
127 -292 293 0
-293 312 0
128 -293 294 0
-294 313 0
131 -294 295 0
-295 314 0
132 -295 296 0
-296 315 0
-101 -296 297 0
-297 316 0
-102 -297 298 0
-298 317 0
-105 -298 299 0
-299 318 0
-106 -299 300 0
-300 319 0
-109 -300 301 0
-301 320 0
-110 -301 302 0
-302 321 0
-113 -302 303 0
-303 322 0
-114 -303 304 0
-304 323 0
-117 -304 305 0
-305 324 0
-118 -305 0
116 306 0
-306 325 0
119 -306 307 0
-307 326 0
120 -307 308 0
-308 327 0
123 -308 309 0
-309 328 0
124 -309 310 0
-310 329 0
127 -310 311 0
-311 330 0
128 -311 312 0
-312 331 0
131 -312 313 0
-313 332 0
132 -313 314 0
-314 333 0
-101 -314 315 0
-315 334 0
-102 -315 316 0
-316 335 0
-105 -316 317 0
-317 336 0
-106 -317 318 0
-318 337 0
-109 -318 319 0
-319 338 0
-110 -319 320 0
-320 339 0
-113 -320 321 0
-321 340 0
-114 -321 322 0
-322 341 0
-117 -322 323 0
-323 342 0
-118 -323 324 0
-324 343 0
-121 -324 0
119 325 0
-325 344 0
120 -325 326 0
-326 345 0
123 -326 327 0
-327 346 0
124 -327 328 0
-328 347 0
127 -328 329 0
-329 348 0
128 -329 330 0
-330 349 0
131 -330 331 0
-331 350 0
132 -331 332 0
-332 351 0
-101 -332 333 0
-333 352 0
-102 -333 334 0
-334 353 0
-105 -334 335 0
-335 354 0
-106 -335 336 0
-336 355 0
-109 -336 337 0
-337 356 0
-110 -337 338 0
-338 357 0
-113 -338 339 0
-339 358 0
-114 -339 340 0
-340 359 0
-117 -340 341 0
-341 360 0
-118 -341 342 0
-342 361 0
-121 -342 343 0
-343 362 0
-122 -343 0
120 344 0
-344 363 0
123 -344 345 0
-345 364 0
124 -345 346 0
-346 365 0
127 -346 347 0
-347 366 0
128 -347 348 0
-348 367 0
131 -348 349 0
-349 368 0
132 -349 350 0
-350 369 0
-101 -350 351 0
-351 370 0
-102 -351 352 0
-352 371 0
-105 -352 353 0
-353 372 0
-106 -353 354 0
-354 373 0
-109 -354 355 0
-355 374 0
-110 -355 356 0
-356 375 0
-113 -356 357 0
-357 376 0
-114 -357 358 0
-358 377 0
-117 -358 359 0
-359 378 0
-118 -359 360 0
-360 379 0
-121 -360 361 0
-361 380 0
-122 -361 362 0
-362 381 0
-125 -362 0
123 363 0
-363 382 0
124 -363 364 0
-364 383 0
127 -364 365 0
-365 384 0
128 -365 366 0
-366 385 0
131 -366 367 0
-367 386 0
132 -367 368 0
-368 387 0
-101 -368 369 0
-369 388 0
-102 -369 370 0
-370 389 0
-105 -370 371 0
-371 390 0
-106 -371 372 0
-372 391 0
-109 -372 373 0
-373 392 0
-110 -373 374 0
-374 393 0
-113 -374 375 0
-375 394 0
-114 -375 376 0
-376 395 0
-117 -376 377 0
-377 396 0
-118 -377 378 0
-378 397 0
-121 -378 379 0
-379 398 0
-122 -379 380 0
-380 399 0
-125 -380 381 0
-381 400 0
-126 -381 0
124 382 0
-382 401 0
127 -382 383 0
-383 402 0
128 -383 384 0
-384 403 0
131 -384 385 0
-385 404 0
132 -385 386 0
-386 405 0
-101 -386 387 0
-387 406 0
-102 -387 388 0
-388 407 0
-105 -388 389 0
-389 408 0
-106 -389 390 0
-390 409 0
-109 -390 391 0
-391 410 0
-110 -391 392 0
-392 411 0
-113 -392 393 0
-393 412 0
-114 -393 394 0
-394 413 0
-117 -394 395 0
-395 414 0
-118 -395 396 0
-396 415 0
-121 -396 397 0
-397 416 0
-122 -397 398 0
-398 417 0
-125 -398 399 0
-399 418 0
-126 -399 400 0
-400 419 0
-129 -400 0
127 401 0
-401 420 0
128 -401 402 0
-402 421 0
131 -402 403 0
-403 422 0
132 -403 404 0
-404 423 0
-101 -404 405 0
-405 424 0
-102 -405 406 0
-406 425 0
-105 -406 407 0
-407 426 0
-106 -407 408 0
-408 427 0
-109 -408 409 0
-409 428 0
-110 -409 410 0
-410 429 0
-113 -410 411 0
-411 430 0
-114 -411 412 0
-412 431 0
-117 -412 413 0
-413 432 0
-118 -413 414 0
-414 433 0
-121 -414 415 0
-415 434 0
-122 -415 416 0
-416 435 0
-125 -416 417 0
-417 436 0
-126 -417 418 0
-418 437 0
-129 -418 419 0
-419 438 0
-130 -419 0
128 420 0
-420 439 0
131 -420 421 0
-421 440 0
132 -421 422 0
-422 441 0
-101 -422 423 0
-423 442 0
-102 -423 424 0
-424 443 0
-105 -424 425 0
-425 444 0
-106 -425 426 0
-426 445 0
-109 -426 427 0
-427 446 0
-110 -427 428 0
-428 447 0
-113 -428 429 0
-429 448 0
-114 -429 430 0
-430 449 0
-117 -430 431 0
-431 450 0
-118 -431 432 0
-432 451 0
-121 -432 433 0
-433 452 0
-122 -433 434 0
-434 453 0
-125 -434 435 0
-435 454 0
-126 -435 436 0
-436 455 0
-129 -436 437 0
-437 456 0
-130 -437 438 0
-438 457 0
-133 -438 0
131 439 0
132 -439 440 0
-101 -440 441 0
-102 -441 442 0
-105 -442 443 0
-106 -443 444 0
-109 -444 445 0
-110 -445 446 0
-113 -446 447 0
-114 -447 448 0
-117 -448 449 0
-118 -449 450 0
-121 -450 451 0
-122 -451 452 0
-125 -452 453 0
-126 -453 454 0
-129 -454 455 0
-130 -455 456 0
-133 -456 457 0
-134 -457 0
-99 458 0
-458 459 0
-100 -458 460 0
-460 461 0
-103 -460 462 0
-462 463 0
-104 -462 464 0
-464 465 0
-107 -464 466 0
-466 467 0
-108 -466 468 0
-468 469 0
-111 -468 470 0
-470 471 0
-112 -470 472 0
-472 473 0
-115 -472 474 0
-474 475 0
-116 -474 476 0
-476 477 0
-119 -476 478 0
-478 479 0
-120 -478 480 0
-480 481 0
-123 -480 482 0
-482 483 0
-124 -482 484 0
-484 485 0
-127 -484 486 0
-486 487 0
-128 -486 488 0
-488 489 0
-131 -488 490 0
-490 491 0
-132 -490 0
-100 459 0
-459 492 0
-103 -459 461 0
-461 493 0
-104 -461 463 0
-463 494 0
-107 -463 465 0
-465 495 0
-108 -465 467 0
-467 496 0
-111 -467 469 0
-469 497 0
-112 -469 471 0
-471 498 0
-115 -471 473 0
-473 499 0
-116 -473 475 0
-475 500 0
-119 -475 477 0
-477 501 0
-120 -477 479 0
-479 502 0
-123 -479 481 0
-481 503 0
-124 -481 483 0
-483 504 0
-127 -483 485 0
-485 505 0
-128 -485 487 0
-487 506 0
-131 -487 489 0
-489 507 0
-132 -489 491 0
-491 508 0
101 -491 0
-103 492 0
-492 509 0
-104 -492 493 0
-493 510 0
-107 -493 494 0
-494 511 0
-108 -494 495 0
-495 512 0
-111 -495 496 0
-496 513 0
-112 -496 497 0
-497 514 0
-115 -497 498 0
-498 515 0
-116 -498 499 0
-499 516 0
-119 -499 500 0
-500 517 0
-120 -500 501 0
-501 518 0
-123 -501 502 0
-502 519 0
-124 -502 503 0
-503 520 0
-127 -503 504 0
-504 521 0
-128 -504 505 0
-505 522 0
-131 -505 506 0
-506 523 0
-132 -506 507 0
-507 524 0
101 -507 508 0
-508 525 0
102 -508 0
-104 509 0
-509 526 0
-107 -509 510 0
-510 527 0
-108 -510 511 0
-511 528 0
-111 -511 512 0
-512 529 0
-112 -512 513 0
-513 530 0
-115 -513 514 0
-514 531 0
-116 -514 515 0
-515 532 0
-119 -515 516 0
-516 533 0
-120 -516 517 0
-517 534 0
-123 -517 518 0
-518 535 0
-124 -518 519 0
-519 536 0
-127 -519 520 0
-520 537 0
-128 -520 521 0
-521 538 0
-131 -521 522 0
-522 539 0
-132 -522 523 0
-523 540 0
101 -523 524 0
-524 541 0
102 -524 525 0
-525 542 0
105 -525 0
-107 526 0
-526 543 0
-108 -526 527 0
-527 544 0
-111 -527 528 0
-528 545 0
-112 -528 529 0
-529 546 0
-115 -529 530 0
-530 547 0
-116 -530 531 0
-531 548 0
-119 -531 532 0
-532 549 0
-120 -532 533 0
-533 550 0
-123 -533 534 0
-534 551 0
-124 -534 535 0
-535 552 0
-127 -535 536 0
-536 553 0
-128 -536 537 0
-537 554 0
-131 -537 538 0
-538 555 0
-132 -538 539 0
-539 556 0
101 -539 540 0
-540 557 0
102 -540 541 0
-541 558 0
105 -541 542 0
-542 559 0
106 -542 0
-108 543 0
-543 560 0
-111 -543 544 0
-544 561 0
-112 -544 545 0
-545 562 0
-115 -545 546 0
-546 563 0
-116 -546 547 0
-547 564 0
-119 -547 548 0
-548 565 0
-120 -548 549 0
-549 566 0
-123 -549 550 0
-550 567 0
-124 -550 551 0
-551 568 0
-127 -551 552 0
-552 569 0
-128 -552 553 0
-553 570 0
-131 -553 554 0
-554 571 0
-132 -554 555 0
-555 572 0
101 -555 556 0
-556 573 0
102 -556 557 0
-557 574 0
105 -557 558 0
-558 575 0
106 -558 559 0
-559 576 0
109 -559 0
-111 560 0
-560 577 0
-112 -560 561 0
-561 578 0
-115 -561 562 0
-562 579 0
-116 -562 563 0
-563 580 0
-119 -563 564 0
-564 581 0
-120 -564 565 0
-565 582 0
-123 -565 566 0
-566 583 0
-124 -566 567 0
-567 584 0
-127 -567 568 0
-568 585 0
-128 -568 569 0
-569 586 0
-131 -569 570 0
-570 587 0
-132 -570 571 0
-571 588 0
101 -571 572 0
-572 589 0
102 -572 573 0
-573 590 0
105 -573 574 0
-574 591 0
106 -574 575 0
-575 592 0
109 -575 576 0
-576 593 0
110 -576 0
-112 577 0
-577 594 0
-115 -577 578 0
-578 595 0
-116 -578 579 0
-579 596 0
-119 -579 580 0
-580 597 0
-120 -580 581 0
-581 598 0
-123 -581 582 0
-582 599 0
-124 -582 583 0
-583 600 0
-127 -583 584 0
-584 601 0
-128 -584 585 0
-585 602 0
-131 -585 586 0
-586 603 0
-132 -586 587 0
-587 604 0
101 -587 588 0
-588 605 0
102 -588 589 0
-589 606 0
105 -589 590 0
-590 607 0
106 -590 591 0
-591 608 0
109 -591 592 0
-592 609 0
110 -592 593 0
-593 610 0
113 -593 0
-115 594 0
-594 611 0
-116 -594 595 0
-595 612 0
-119 -595 596 0
-596 613 0
-120 -596 597 0
-597 614 0
-123 -597 598 0
-598 615 0
-124 -598 599 0
-599 616 0
-127 -599 600 0
-600 617 0
-128 -600 601 0
-601 618 0
-131 -601 602 0
-602 619 0
-132 -602 603 0
-603 620 0
101 -603 604 0
-604 621 0
102 -604 605 0
-605 622 0
105 -605 606 0
-606 623 0
106 -606 607 0
-607 624 0
109 -607 608 0
-608 625 0
110 -608 609 0
-609 626 0
113 -609 610 0
-610 627 0
114 -610 0
-116 611 0
-611 628 0
-119 -611 612 0
-612 629 0
-120 -612 613 0
-613 630 0
-123 -613 614 0
-614 631 0
-124 -614 615 0
-615 632 0
-127 -615 616 0
-616 633 0
-128 -616 617 0
-617 634 0
-131 -617 618 0
-618 635 0
-132 -618 619 0
-619 636 0
101 -619 620 0
-620 637 0
102 -620 621 0
-621 638 0
105 -621 622 0
-622 639 0
106 -622 623 0
-623 640 0
109 -623 624 0
-624 641 0
110 -624 625 0
-625 642 0
113 -625 626 0
-626 643 0
114 -626 627 0
-627 644 0
117 -627 0
-119 628 0
-628 645 0
-120 -628 629 0
-629 646 0
-123 -629 630 0
-630 647 0
-124 -630 631 0
-631 648 0
-127 -631 632 0
-632 649 0
-128 -632 633 0
-633 650 0
-131 -633 634 0
-634 651 0
-132 -634 635 0
-635 652 0
101 -635 636 0
-636 653 0
102 -636 637 0
-637 654 0
105 -637 638 0
-638 655 0
106 -638 639 0
-639 656 0
109 -639 640 0
-640 657 0
110 -640 641 0
-641 658 0
113 -641 642 0
-642 659 0
114 -642 643 0
-643 660 0
117 -643 644 0
-644 661 0
118 -644 0
-120 645 0
-645 662 0
-123 -645 646 0
-646 663 0
-124 -646 647 0
-647 664 0
-127 -647 648 0
-648 665 0
-128 -648 649 0
-649 666 0
-131 -649 650 0
-650 667 0
-132 -650 651 0
-651 668 0
101 -651 652 0
-652 669 0
102 -652 653 0
-653 670 0
105 -653 654 0
-654 671 0
106 -654 655 0
-655 672 0
109 -655 656 0
-656 673 0
110 -656 657 0
-657 674 0
113 -657 658 0
-658 675 0
114 -658 659 0
-659 676 0
117 -659 660 0
-660 677 0
118 -660 661 0
-661 678 0
121 -661 0
-123 662 0
-662 679 0
-124 -662 663 0
-663 680 0
-127 -663 664 0
-664 681 0
-128 -664 665 0
-665 682 0
-131 -665 666 0
-666 683 0
-132 -666 667 0
-667 684 0
101 -667 668 0
-668 685 0
102 -668 669 0
-669 686 0
105 -669 670 0
-670 687 0
106 -670 671 0
-671 688 0
109 -671 672 0
-672 689 0
110 -672 673 0
-673 690 0
113 -673 674 0
-674 691 0
114 -674 675 0
-675 692 0
117 -675 676 0
-676 693 0
118 -676 677 0
-677 694 0
121 -677 678 0
-678 695 0
122 -678 0
-124 679 0
-679 696 0
-127 -679 680 0
-680 697 0
-128 -680 681 0
-681 698 0
-131 -681 682 0
-682 699 0
-132 -682 683 0
-683 700 0
101 -683 684 0
-684 701 0
102 -684 685 0
-685 702 0
105 -685 686 0
-686 703 0
106 -686 687 0
-687 704 0
109 -687 688 0
-688 705 0
110 -688 689 0
-689 706 0
113 -689 690 0
-690 707 0
114 -690 691 0
-691 708 0
117 -691 692 0
-692 709 0
118 -692 693 0
-693 710 0
121 -693 694 0
-694 711 0
122 -694 695 0
-695 712 0
125 -695 0
-127 696 0
-696 713 0
-128 -696 697 0
-697 714 0
-131 -697 698 0
-698 715 0
-132 -698 699 0
-699 716 0
101 -699 700 0
-700 717 0
102 -700 701 0
-701 718 0
105 -701 702 0
-702 719 0
106 -702 703 0
-703 720 0
109 -703 704 0
-704 721 0
110 -704 705 0
-705 722 0
113 -705 706 0
-706 723 0
114 -706 707 0
-707 724 0
117 -707 708 0
-708 725 0
118 -708 709 0
-709 726 0
121 -709 710 0
-710 727 0
122 -710 711 0
-711 728 0
125 -711 712 0
-712 729 0
126 -712 0
-128 713 0
-713 730 0
-131 -713 714 0
-714 731 0
-132 -714 715 0
-715 732 0
101 -715 716 0
-716 733 0
102 -716 717 0
-717 734 0
105 -717 718 0
-718 735 0
106 -718 719 0
-719 736 0
109 -719 720 0
-720 737 0
110 -720 721 0
-721 738 0
113 -721 722 0
-722 739 0
114 -722 723 0
-723 740 0
117 -723 724 0
-724 741 0
118 -724 725 0
-725 742 0
121 -725 726 0
-726 743 0
122 -726 727 0
-727 744 0
125 -727 728 0
-728 745 0
126 -728 729 0
-729 746 0
129 -729 0
-131 730 0
-730 747 0
-132 -730 731 0
-731 748 0
101 -731 732 0
-732 749 0
102 -732 733 0
-733 750 0
105 -733 734 0
-734 751 0
106 -734 735 0
-735 752 0
109 -735 736 0
-736 753 0
110 -736 737 0
-737 754 0
113 -737 738 0
-738 755 0
114 -738 739 0
-739 756 0
117 -739 740 0
-740 757 0
118 -740 741 0
-741 758 0
121 -741 742 0
-742 759 0
122 -742 743 0
-743 760 0
125 -743 744 0
-744 761 0
126 -744 745 0
-745 762 0
129 -745 746 0
-746 763 0
130 -746 0
-132 747 0
-747 764 0
101 -747 748 0
-748 765 0
102 -748 749 0
-749 766 0
105 -749 750 0
-750 767 0
106 -750 751 0
-751 768 0
109 -751 752 0
-752 769 0
110 -752 753 0
-753 770 0
113 -753 754 0
-754 771 0
114 -754 755 0
-755 772 0
117 -755 756 0
-756 773 0
118 -756 757 0
-757 774 0
121 -757 758 0
-758 775 0
122 -758 759 0
-759 776 0
125 -759 760 0
-760 777 0
126 -760 761 0
-761 778 0
129 -761 762 0
-762 779 0
130 -762 763 0
-763 780 0
133 -763 0
101 764 0
102 -764 765 0
105 -765 766 0
106 -766 767 0
109 -767 768 0
110 -768 769 0
113 -769 770 0
114 -770 771 0
117 -771 772 0
118 -772 773 0
121 -773 774 0
122 -774 775 0
125 -775 776 0
126 -776 777 0
129 -777 778 0
130 -778 779 0
133 -779 780 0
134 -780 0
-781 1 0
-781 2 0
781 -1 -2 0
-782 10 0
-782 11 0
782 -10 -11 0
-783 1 0
-783 11 0
783 -1 -11 0
-784 10 0
-784 2 0
784 -10 -2 0
-785 2 0
-785 3 0
785 -2 -3 0
-786 11 0
-786 12 0
786 -11 -12 0
-787 2 0
-787 12 0
787 -2 -12 0
-788 11 0
-788 3 0
788 -11 -3 0
-789 3 0
-789 1 0
789 -3 -1 0
-790 12 0
-790 10 0
790 -12 -10 0
-791 3 0
-791 10 0
791 -3 -10 0
-792 12 0
-792 1 0
792 -12 -1 0
-793 4 0
-793 5 0
793 -4 -5 0
-794 13 0
-794 14 0
794 -13 -14 0
-795 4 0
-795 14 0
795 -4 -14 0
-796 13 0
-796 5 0
796 -13 -5 0
-797 5 0
-797 6 0
797 -5 -6 0
-798 14 0
-798 15 0
798 -14 -15 0
-799 5 0
-799 15 0
799 -5 -15 0
-800 14 0
-800 6 0
800 -14 -6 0
-801 6 0
-801 4 0
801 -6 -4 0
-802 15 0
-802 13 0
802 -15 -13 0
-803 6 0
-803 13 0
803 -6 -13 0
-804 15 0
-804 4 0
804 -15 -4 0
-805 7 0
-805 8 0
805 -7 -8 0
-806 16 0
-806 17 0
806 -16 -17 0
-807 7 0
-807 17 0
807 -7 -17 0
-808 16 0
-808 8 0
808 -16 -8 0
-809 8 0
-809 9 0
809 -8 -9 0
-810 17 0
-810 18 0
810 -17 -18 0
-811 8 0
-811 18 0
811 -8 -18 0
-812 17 0
-812 9 0
812 -17 -9 0
-813 9 0
-813 7 0
813 -9 -7 0
-814 18 0
-814 16 0
814 -18 -16 0
-815 9 0
-815 16 0
815 -9 -16 0
-816 18 0
-816 7 0
816 -18 -7 0
781 817 0
-817 818 0
782 -817 819 0
-819 820 0
785 -819 821 0
-821 822 0
786 -821 823 0
-823 824 0
789 -823 825 0
-825 826 0
790 -825 827 0
-827 828 0
793 -827 829 0
-829 830 0
794 -829 831 0
-831 832 0
797 -831 833 0
-833 834 0
798 -833 835 0
-835 836 0
801 -835 837 0
-837 838 0
802 -837 839 0
-839 840 0
805 -839 841 0
-841 842 0
806 -841 843 0
-843 844 0
809 -843 845 0
-845 846 0
810 -845 847 0
-847 848 0
813 -847 849 0
-849 850 0
814 -849 851 0
-851 852 0
-783 -851 853 0
-853 854 0
-784 -853 0
782 818 0
-818 855 0
785 -818 820 0
-820 856 0
786 -820 822 0
-822 857 0
789 -822 824 0
-824 858 0
790 -824 826 0
-826 859 0
793 -826 828 0
-828 860 0
794 -828 830 0
-830 861 0
797 -830 832 0
-832 862 0
798 -832 834 0
-834 863 0
801 -834 836 0
-836 864 0
802 -836 838 0
-838 865 0
805 -838 840 0
-840 866 0
806 -840 842 0
-842 867 0
809 -842 844 0
-844 868 0
810 -844 846 0
-846 869 0
813 -846 848 0
-848 870 0
814 -848 850 0
-850 871 0
-783 -850 852 0
-852 872 0
-784 -852 854 0
-854 873 0
-787 -854 0
785 855 0
-855 874 0
786 -855 856 0
-856 875 0
789 -856 857 0
-857 876 0
790 -857 858 0
-858 877 0
793 -858 859 0
-859 878 0
794 -859 860 0
-860 879 0
797 -860 861 0
-861 880 0
798 -861 862 0
-862 881 0
801 -862 863 0
-863 882 0
802 -863 864 0
-864 883 0
805 -864 865 0
-865 884 0
806 -865 866 0
-866 885 0
809 -866 867 0
-867 886 0
810 -867 868 0
-868 887 0
813 -868 869 0
-869 888 0
814 -869 870 0
-870 889 0
-783 -870 871 0
-871 890 0
-784 -871 872 0
-872 891 0
-787 -872 873 0
-873 892 0
-788 -873 0
786 874 0
-874 893 0
789 -874 875 0
-875 894 0
790 -875 876 0
-876 895 0
793 -876 877 0
-877 896 0
794 -877 878 0
-878 897 0
797 -878 879 0
-879 898 0
798 -879 880 0
-880 899 0
801 -880 881 0
-881 900 0
802 -881 882 0
-882 901 0
805 -882 883 0
-883 902 0
806 -883 884 0
-884 903 0
809 -884 885 0
-885 904 0
810 -885 886 0
-886 905 0
813 -886 887 0
-887 906 0
814 -887 888 0
-888 907 0
-783 -888 889 0
-889 908 0
-784 -889 890 0
-890 909 0
-787 -890 891 0
-891 910 0
-788 -891 892 0
-892 911 0
-791 -892 0
789 893 0
-893 912 0
790 -893 894 0
-894 913 0
793 -894 895 0
-895 914 0
794 -895 896 0
-896 915 0
797 -896 897 0
-897 916 0
798 -897 898 0
-898 917 0
801 -898 899 0
-899 918 0
802 -899 900 0
-900 919 0
805 -900 901 0
-901 920 0
806 -901 902 0
-902 921 0
809 -902 903 0
-903 922 0
810 -903 904 0
-904 923 0
813 -904 905 0
-905 924 0
814 -905 906 0
-906 925 0
-783 -906 907 0
-907 926 0
-784 -907 908 0
-908 927 0
-787 -908 909 0
-909 928 0
-788 -909 910 0
-910 929 0
-791 -910 911 0
-911 930 0
-792 -911 0
790 912 0
-912 931 0
793 -912 913 0
-913 932 0
794 -913 914 0
-914 933 0
797 -914 915 0
-915 934 0
798 -915 916 0
-916 935 0
801 -916 917 0
-917 936 0
802 -917 918 0
-918 937 0
805 -918 919 0
-919 938 0
806 -919 920 0
-920 939 0
809 -920 921 0
-921 940 0
810 -921 922 0
-922 941 0
813 -922 923 0
-923 942 0
814 -923 924 0
-924 943 0
-783 -924 925 0
-925 944 0
-784 -925 926 0
-926 945 0
-787 -926 927 0
-927 946 0
-788 -927 928 0
-928 947 0
-791 -928 929 0
-929 948 0
-792 -929 930 0
-930 949 0
-795 -930 0
793 931 0
-931 950 0
794 -931 932 0
-932 951 0
797 -932 933 0
-933 952 0
798 -933 934 0
-934 953 0
801 -934 935 0
-935 954 0
802 -935 936 0
-936 955 0
805 -936 937 0
-937 956 0
806 -937 938 0
-938 957 0
809 -938 939 0
-939 958 0
810 -939 940 0
-940 959 0
813 -940 941 0
-941 960 0
814 -941 942 0
-942 961 0
-783 -942 943 0
-943 962 0
-784 -943 944 0
-944 963 0
-787 -944 945 0
-945 964 0
-788 -945 946 0
-946 965 0
-791 -946 947 0
-947 966 0
-792 -947 948 0
-948 967 0
-795 -948 949 0
-949 968 0
-796 -949 0
794 950 0
-950 969 0
797 -950 951 0
-951 970 0
798 -951 952 0
-952 971 0
801 -952 953 0
-953 972 0
802 -953 954 0
-954 973 0
805 -954 955 0
-955 974 0
806 -955 956 0
-956 975 0
809 -956 957 0
-957 976 0
810 -957 958 0
-958 977 0
813 -958 959 0
-959 978 0
814 -959 960 0
-960 979 0
-783 -960 961 0
-961 980 0
-784 -961 962 0
-962 981 0
-787 -962 963 0
-963 982 0
-788 -963 964 0
-964 983 0
-791 -964 965 0
-965 984 0
-792 -965 966 0
-966 985 0
-795 -966 967 0
-967 986 0
-796 -967 968 0
-968 987 0
-799 -968 0
797 969 0
-969 988 0
798 -969 970 0
-970 989 0
801 -970 971 0
-971 990 0
802 -971 972 0
-972 991 0
805 -972 973 0
-973 992 0
806 -973 974 0
-974 993 0
809 -974 975 0
-975 994 0
810 -975 976 0
-976 995 0
813 -976 977 0
-977 996 0
814 -977 978 0
-978 997 0
-783 -978 979 0
-979 998 0
-784 -979 980 0
-980 999 0
-787 -980 981 0
-981 1000 0
-788 -981 982 0
-982 1001 0
-791 -982 983 0
-983 1002 0
-792 -983 984 0
-984 1003 0
-795 -984 985 0
-985 1004 0
-796 -985 986 0
-986 1005 0
-799 -986 987 0
-987 1006 0
-800 -987 0
798 988 0
-988 1007 0
801 -988 989 0
-989 1008 0
802 -989 990 0
-990 1009 0
805 -990 991 0
-991 1010 0
806 -991 992 0
-992 1011 0
809 -992 993 0
-993 1012 0
810 -993 994 0
-994 1013 0
813 -994 995 0
-995 1014 0
814 -995 996 0
-996 1015 0
-783 -996 997 0
-997 1016 0
-784 -997 998 0
-998 1017 0
-787 -998 999 0
-999 1018 0
-788 -999 1000 0
-1000 1019 0
-791 -1000 1001 0
-1001 1020 0
-792 -1001 1002 0
-1002 1021 0
-795 -1002 1003 0
-1003 1022 0
-796 -1003 1004 0
-1004 1023 0
-799 -1004 1005 0
-1005 1024 0
-800 -1005 1006 0
-1006 1025 0
-803 -1006 0
801 1007 0
-1007 1026 0
802 -1007 1008 0
-1008 1027 0
805 -1008 1009 0
-1009 1028 0
806 -1009 1010 0
-1010 1029 0
809 -1010 1011 0
-1011 1030 0
810 -1011 1012 0
-1012 1031 0
813 -1012 1013 0
-1013 1032 0
814 -1013 1014 0
-1014 1033 0
-783 -1014 1015 0
-1015 1034 0
-784 -1015 1016 0
-1016 1035 0
-787 -1016 1017 0
-1017 1036 0
-788 -1017 1018 0
-1018 1037 0
-791 -1018 1019 0
-1019 1038 0
-792 -1019 1020 0
-1020 1039 0
-795 -1020 1021 0
-1021 1040 0
-796 -1021 1022 0
-1022 1041 0
-799 -1022 1023 0
-1023 1042 0
-800 -1023 1024 0
-1024 1043 0
-803 -1024 1025 0
-1025 1044 0
-804 -1025 0
802 1026 0
-1026 1045 0
805 -1026 1027 0
-1027 1046 0
806 -1027 1028 0
-1028 1047 0
809 -1028 1029 0
-1029 1048 0
810 -1029 1030 0
-1030 1049 0
813 -1030 1031 0
-1031 1050 0
814 -1031 1032 0
-1032 1051 0
-783 -1032 1033 0
-1033 1052 0
-784 -1033 1034 0
-1034 1053 0
-787 -1034 1035 0
-1035 1054 0
-788 -1035 1036 0
-1036 1055 0
-791 -1036 1037 0
-1037 1056 0
-792 -1037 1038 0
-1038 1057 0
-795 -1038 1039 0
-1039 1058 0
-796 -1039 1040 0
-1040 1059 0
-799 -1040 1041 0
-1041 1060 0
-800 -1041 1042 0
-1042 1061 0
-803 -1042 1043 0
-1043 1062 0
-804 -1043 1044 0
-1044 1063 0
-807 -1044 0
805 1045 0
-1045 1064 0
806 -1045 1046 0
-1046 1065 0
809 -1046 1047 0
-1047 1066 0
810 -1047 1048 0
-1048 1067 0
813 -1048 1049 0
-1049 1068 0
814 -1049 1050 0
-1050 1069 0
-783 -1050 1051 0
-1051 1070 0
-784 -1051 1052 0
-1052 1071 0
-787 -1052 1053 0
-1053 1072 0
-788 -1053 1054 0
-1054 1073 0
-791 -1054 1055 0
-1055 1074 0
-792 -1055 1056 0
-1056 1075 0
-795 -1056 1057 0
-1057 1076 0
-796 -1057 1058 0
-1058 1077 0
-799 -1058 1059 0
-1059 1078 0
-800 -1059 1060 0
-1060 1079 0
-803 -1060 1061 0
-1061 1080 0
-804 -1061 1062 0
-1062 1081 0
-807 -1062 1063 0
-1063 1082 0
-808 -1063 0
806 1064 0
-1064 1083 0
809 -1064 1065 0
-1065 1084 0
810 -1065 1066 0
-1066 1085 0
813 -1066 1067 0
-1067 1086 0
814 -1067 1068 0
-1068 1087 0
-783 -1068 1069 0
-1069 1088 0
-784 -1069 1070 0
-1070 1089 0
-787 -1070 1071 0
-1071 1090 0
-788 -1071 1072 0
-1072 1091 0
-791 -1072 1073 0
-1073 1092 0
-792 -1073 1074 0
-1074 1093 0
-795 -1074 1075 0
-1075 1094 0
-796 -1075 1076 0
-1076 1095 0
-799 -1076 1077 0
-1077 1096 0
-800 -1077 1078 0
-1078 1097 0
-803 -1078 1079 0
-1079 1098 0
-804 -1079 1080 0
-1080 1099 0
-807 -1080 1081 0
-1081 1100 0
-808 -1081 1082 0
-1082 1101 0
-811 -1082 0
809 1083 0
-1083 1102 0
810 -1083 1084 0
-1084 1103 0
813 -1084 1085 0
-1085 1104 0
814 -1085 1086 0
-1086 1105 0
-783 -1086 1087 0
-1087 1106 0
-784 -1087 1088 0
-1088 1107 0
-787 -1088 1089 0
-1089 1108 0
-788 -1089 1090 0
-1090 1109 0
-791 -1090 1091 0
-1091 1110 0
-792 -1091 1092 0
-1092 1111 0
-795 -1092 1093 0
-1093 1112 0
-796 -1093 1094 0
-1094 1113 0
-799 -1094 1095 0
-1095 1114 0
-800 -1095 1096 0
-1096 1115 0
-803 -1096 1097 0
-1097 1116 0
-804 -1097 1098 0
-1098 1117 0
-807 -1098 1099 0
-1099 1118 0
-808 -1099 1100 0
-1100 1119 0
-811 -1100 1101 0
-1101 1120 0
-812 -1101 0
810 1102 0
-1102 1121 0
813 -1102 1103 0
-1103 1122 0
814 -1103 1104 0
-1104 1123 0
-783 -1104 1105 0
-1105 1124 0
-784 -1105 1106 0
-1106 1125 0
-787 -1106 1107 0
-1107 1126 0
-788 -1107 1108 0
-1108 1127 0
-791 -1108 1109 0
-1109 1128 0
-792 -1109 1110 0
-1110 1129 0
-795 -1110 1111 0
-1111 1130 0
-796 -1111 1112 0
-1112 1131 0
-799 -1112 1113 0
-1113 1132 0
-800 -1113 1114 0
-1114 1133 0
-803 -1114 1115 0
-1115 1134 0
-804 -1115 1116 0
-1116 1135 0
-807 -1116 1117 0
-1117 1136 0
-808 -1117 1118 0
-1118 1137 0
-811 -1118 1119 0
-1119 1138 0
-812 -1119 1120 0
-1120 1139 0
-815 -1120 0
813 1121 0
814 -1121 1122 0
-783 -1122 1123 0
-784 -1123 1124 0
-787 -1124 1125 0
-788 -1125 1126 0
-791 -1126 1127 0
-792 -1127 1128 0
-795 -1128 1129 0
-796 -1129 1130 0
-799 -1130 1131 0
-800 -1131 1132 0
-803 -1132 1133 0
-804 -1133 1134 0
-807 -1134 1135 0
-808 -1135 1136 0
-811 -1136 1137 0
-812 -1137 1138 0
-815 -1138 1139 0
-816 -1139 0
-781 1140 0
-1140 1141 0
-782 -1140 1142 0
-1142 1143 0
-785 -1142 1144 0
-1144 1145 0
-786 -1144 1146 0
-1146 1147 0
-789 -1146 1148 0
-1148 1149 0
-790 -1148 1150 0
-1150 1151 0
-793 -1150 1152 0
-1152 1153 0
-794 -1152 1154 0
-1154 1155 0
-797 -1154 1156 0
-1156 1157 0
-798 -1156 1158 0
-1158 1159 0
-801 -1158 1160 0
-1160 1161 0
-802 -1160 1162 0
-1162 1163 0
-805 -1162 1164 0
-1164 1165 0
-806 -1164 1166 0
-1166 1167 0
-809 -1166 1168 0
-1168 1169 0
-810 -1168 1170 0
-1170 1171 0
-813 -1170 1172 0
-1172 1173 0
-814 -1172 0
-782 1141 0
-1141 1174 0
-785 -1141 1143 0
-1143 1175 0
-786 -1143 1145 0
-1145 1176 0
-789 -1145 1147 0
-1147 1177 0
-790 -1147 1149 0
-1149 1178 0
-793 -1149 1151 0
-1151 1179 0
-794 -1151 1153 0
-1153 1180 0
-797 -1153 1155 0
-1155 1181 0
-798 -1155 1157 0
-1157 1182 0
-801 -1157 1159 0
-1159 1183 0
-802 -1159 1161 0
-1161 1184 0
-805 -1161 1163 0
-1163 1185 0
-806 -1163 1165 0
-1165 1186 0
-809 -1165 1167 0
-1167 1187 0
-810 -1167 1169 0
-1169 1188 0
-813 -1169 1171 0
-1171 1189 0
-814 -1171 1173 0
-1173 1190 0
783 -1173 0
-785 1174 0
-1174 1191 0
-786 -1174 1175 0
-1175 1192 0
-789 -1175 1176 0
-1176 1193 0
-790 -1176 1177 0
-1177 1194 0
-793 -1177 1178 0
-1178 1195 0
-794 -1178 1179 0
-1179 1196 0
-797 -1179 1180 0
-1180 1197 0
-798 -1180 1181 0
-1181 1198 0
-801 -1181 1182 0
-1182 1199 0
-802 -1182 1183 0
-1183 1200 0
-805 -1183 1184 0
-1184 1201 0
-806 -1184 1185 0
-1185 1202 0
-809 -1185 1186 0
-1186 1203 0
-810 -1186 1187 0
-1187 1204 0
-813 -1187 1188 0
-1188 1205 0
-814 -1188 1189 0
-1189 1206 0
783 -1189 1190 0
-1190 1207 0
784 -1190 0
-786 1191 0
-1191 1208 0
-789 -1191 1192 0
-1192 1209 0
-790 -1192 1193 0
-1193 1210 0
-793 -1193 1194 0
-1194 1211 0
-794 -1194 1195 0
-1195 1212 0
-797 -1195 1196 0
-1196 1213 0
-798 -1196 1197 0
-1197 1214 0
-801 -1197 1198 0
-1198 1215 0
-802 -1198 1199 0
-1199 1216 0
-805 -1199 1200 0
-1200 1217 0
-806 -1200 1201 0
-1201 1218 0
-809 -1201 1202 0
-1202 1219 0
-810 -1202 1203 0
-1203 1220 0
-813 -1203 1204 0
-1204 1221 0
-814 -1204 1205 0
-1205 1222 0
783 -1205 1206 0
-1206 1223 0
784 -1206 1207 0
-1207 1224 0
787 -1207 0
-789 1208 0
-1208 1225 0
-790 -1208 1209 0
-1209 1226 0
-793 -1209 1210 0
-1210 1227 0
-794 -1210 1211 0
-1211 1228 0
-797 -1211 1212 0
-1212 1229 0
-798 -1212 1213 0
-1213 1230 0
-801 -1213 1214 0
-1214 1231 0
-802 -1214 1215 0
-1215 1232 0
-805 -1215 1216 0
-1216 1233 0
-806 -1216 1217 0
-1217 1234 0
-809 -1217 1218 0
-1218 1235 0
-810 -1218 1219 0
-1219 1236 0
-813 -1219 1220 0
-1220 1237 0
-814 -1220 1221 0
-1221 1238 0
783 -1221 1222 0
-1222 1239 0
784 -1222 1223 0
-1223 1240 0
787 -1223 1224 0
-1224 1241 0
788 -1224 0
-790 1225 0
-1225 1242 0
-793 -1225 1226 0
-1226 1243 0
-794 -1226 1227 0
-1227 1244 0
-797 -1227 1228 0
-1228 1245 0
-798 -1228 1229 0
-1229 1246 0
-801 -1229 1230 0
-1230 1247 0
-802 -1230 1231 0
-1231 1248 0
-805 -1231 1232 0
-1232 1249 0
-806 -1232 1233 0
-1233 1250 0
-809 -1233 1234 0
-1234 1251 0
-810 -1234 1235 0
-1235 1252 0
-813 -1235 1236 0
-1236 1253 0
-814 -1236 1237 0
-1237 1254 0
783 -1237 1238 0
-1238 1255 0
784 -1238 1239 0
-1239 1256 0
787 -1239 1240 0
-1240 1257 0
788 -1240 1241 0
-1241 1258 0
791 -1241 0
-793 1242 0
-1242 1259 0
-794 -1242 1243 0
-1243 1260 0
-797 -1243 1244 0
-1244 1261 0
-798 -1244 1245 0
-1245 1262 0
-801 -1245 1246 0
-1246 1263 0
-802 -1246 1247 0
-1247 1264 0
-805 -1247 1248 0
-1248 1265 0
-806 -1248 1249 0
-1249 1266 0
-809 -1249 1250 0
-1250 1267 0
-810 -1250 1251 0
-1251 1268 0
-813 -1251 1252 0
-1252 1269 0
-814 -1252 1253 0
-1253 1270 0
783 -1253 1254 0
-1254 1271 0
784 -1254 1255 0
-1255 1272 0
787 -1255 1256 0
-1256 1273 0
788 -1256 1257 0
-1257 1274 0
791 -1257 1258 0
-1258 1275 0
792 -1258 0
-794 1259 0
-1259 1276 0
-797 -1259 1260 0
-1260 1277 0
-798 -1260 1261 0
-1261 1278 0
-801 -1261 1262 0
-1262 1279 0
-802 -1262 1263 0
-1263 1280 0
-805 -1263 1264 0
-1264 1281 0
-806 -1264 1265 0
-1265 1282 0
-809 -1265 1266 0
-1266 1283 0
-810 -1266 1267 0
-1267 1284 0
-813 -1267 1268 0
-1268 1285 0
-814 -1268 1269 0
-1269 1286 0
783 -1269 1270 0
-1270 1287 0
784 -1270 1271 0
-1271 1288 0
787 -1271 1272 0
-1272 1289 0
788 -1272 1273 0
-1273 1290 0
791 -1273 1274 0
-1274 1291 0
792 -1274 1275 0
-1275 1292 0
795 -1275 0
-797 1276 0
-1276 1293 0
-798 -1276 1277 0
-1277 1294 0
-801 -1277 1278 0
-1278 1295 0
-802 -1278 1279 0
-1279 1296 0
-805 -1279 1280 0
-1280 1297 0
-806 -1280 1281 0
-1281 1298 0
-809 -1281 1282 0
-1282 1299 0
-810 -1282 1283 0
-1283 1300 0
-813 -1283 1284 0
-1284 1301 0
-814 -1284 1285 0
-1285 1302 0
783 -1285 1286 0
-1286 1303 0
784 -1286 1287 0
-1287 1304 0
787 -1287 1288 0
-1288 1305 0
788 -1288 1289 0
-1289 1306 0
791 -1289 1290 0
-1290 1307 0
792 -1290 1291 0
-1291 1308 0
795 -1291 1292 0
-1292 1309 0
796 -1292 0
-798 1293 0
-1293 1310 0
-801 -1293 1294 0
-1294 1311 0
-802 -1294 1295 0
-1295 1312 0
-805 -1295 1296 0
-1296 1313 0
-806 -1296 1297 0
-1297 1314 0
-809 -1297 1298 0
-1298 1315 0
-810 -1298 1299 0
-1299 1316 0
-813 -1299 1300 0
-1300 1317 0
-814 -1300 1301 0
-1301 1318 0
783 -1301 1302 0
-1302 1319 0
784 -1302 1303 0
-1303 1320 0
787 -1303 1304 0
-1304 1321 0
788 -1304 1305 0
-1305 1322 0
791 -1305 1306 0
-1306 1323 0
792 -1306 1307 0
-1307 1324 0
795 -1307 1308 0
-1308 1325 0
796 -1308 1309 0
-1309 1326 0
799 -1309 0
-801 1310 0
-1310 1327 0
-802 -1310 1311 0
-1311 1328 0
-805 -1311 1312 0
-1312 1329 0
-806 -1312 1313 0
-1313 1330 0
-809 -1313 1314 0
-1314 1331 0
-810 -1314 1315 0
-1315 1332 0
-813 -1315 1316 0
-1316 1333 0
-814 -1316 1317 0
-1317 1334 0
783 -1317 1318 0
-1318 1335 0
784 -1318 1319 0
-1319 1336 0
787 -1319 1320 0
-1320 1337 0
788 -1320 1321 0
-1321 1338 0
791 -1321 1322 0
-1322 1339 0
792 -1322 1323 0
-1323 1340 0
795 -1323 1324 0
-1324 1341 0
796 -1324 1325 0
-1325 1342 0
799 -1325 1326 0
-1326 1343 0
800 -1326 0
-802 1327 0
-1327 1344 0
-805 -1327 1328 0
-1328 1345 0
-806 -1328 1329 0
-1329 1346 0
-809 -1329 1330 0
-1330 1347 0
-810 -1330 1331 0
-1331 1348 0
-813 -1331 1332 0
-1332 1349 0
-814 -1332 1333 0
-1333 1350 0
783 -1333 1334 0
-1334 1351 0
784 -1334 1335 0
-1335 1352 0
787 -1335 1336 0
-1336 1353 0
788 -1336 1337 0
-1337 1354 0
791 -1337 1338 0
-1338 1355 0
792 -1338 1339 0
-1339 1356 0
795 -1339 1340 0
-1340 1357 0
796 -1340 1341 0
-1341 1358 0
799 -1341 1342 0
-1342 1359 0
800 -1342 1343 0
-1343 1360 0
803 -1343 0
-805 1344 0
-1344 1361 0
-806 -1344 1345 0
-1345 1362 0
-809 -1345 1346 0
-1346 1363 0
-810 -1346 1347 0
-1347 1364 0
-813 -1347 1348 0
-1348 1365 0
-814 -1348 1349 0
-1349 1366 0
783 -1349 1350 0
-1350 1367 0
784 -1350 1351 0
-1351 1368 0
787 -1351 1352 0
-1352 1369 0
788 -1352 1353 0
-1353 1370 0
791 -1353 1354 0
-1354 1371 0
792 -1354 1355 0
-1355 1372 0
795 -1355 1356 0
-1356 1373 0
796 -1356 1357 0
-1357 1374 0
799 -1357 1358 0
-1358 1375 0
800 -1358 1359 0
-1359 1376 0
803 -1359 1360 0
-1360 1377 0
804 -1360 0
-806 1361 0
-1361 1378 0
-809 -1361 1362 0
-1362 1379 0
-810 -1362 1363 0
-1363 1380 0
-813 -1363 1364 0
-1364 1381 0
-814 -1364 1365 0
-1365 1382 0
783 -1365 1366 0
-1366 1383 0
784 -1366 1367 0
-1367 1384 0
787 -1367 1368 0
-1368 1385 0
788 -1368 1369 0
-1369 1386 0
791 -1369 1370 0
-1370 1387 0
792 -1370 1371 0
-1371 1388 0
795 -1371 1372 0
-1372 1389 0
796 -1372 1373 0
-1373 1390 0
799 -1373 1374 0
-1374 1391 0
800 -1374 1375 0
-1375 1392 0
803 -1375 1376 0
-1376 1393 0
804 -1376 1377 0
-1377 1394 0
807 -1377 0
-809 1378 0
-1378 1395 0
-810 -1378 1379 0
-1379 1396 0
-813 -1379 1380 0
-1380 1397 0
-814 -1380 1381 0
-1381 1398 0
783 -1381 1382 0
-1382 1399 0
784 -1382 1383 0
-1383 1400 0
787 -1383 1384 0
-1384 1401 0
788 -1384 1385 0
-1385 1402 0
791 -1385 1386 0
-1386 1403 0
792 -1386 1387 0
-1387 1404 0
795 -1387 1388 0
-1388 1405 0
796 -1388 1389 0
-1389 1406 0
799 -1389 1390 0
-1390 1407 0
800 -1390 1391 0
-1391 1408 0
803 -1391 1392 0
-1392 1409 0
804 -1392 1393 0
-1393 1410 0
807 -1393 1394 0
-1394 1411 0
808 -1394 0
-810 1395 0
-1395 1412 0
-813 -1395 1396 0
-1396 1413 0
-814 -1396 1397 0
-1397 1414 0
783 -1397 1398 0
-1398 1415 0
784 -1398 1399 0
-1399 1416 0
787 -1399 1400 0
-1400 1417 0
788 -1400 1401 0
-1401 1418 0
791 -1401 1402 0
-1402 1419 0
792 -1402 1403 0
-1403 1420 0
795 -1403 1404 0
-1404 1421 0
796 -1404 1405 0
-1405 1422 0
799 -1405 1406 0
-1406 1423 0
800 -1406 1407 0
-1407 1424 0
803 -1407 1408 0
-1408 1425 0
804 -1408 1409 0
-1409 1426 0
807 -1409 1410 0
-1410 1427 0
808 -1410 1411 0
-1411 1428 0
811 -1411 0
-813 1412 0
-1412 1429 0
-814 -1412 1413 0
-1413 1430 0
783 -1413 1414 0
-1414 1431 0
784 -1414 1415 0
-1415 1432 0
787 -1415 1416 0
-1416 1433 0
788 -1416 1417 0
-1417 1434 0
791 -1417 1418 0
-1418 1435 0
792 -1418 1419 0
-1419 1436 0
795 -1419 1420 0
-1420 1437 0
796 -1420 1421 0
-1421 1438 0
799 -1421 1422 0
-1422 1439 0
800 -1422 1423 0
-1423 1440 0
803 -1423 1424 0
-1424 1441 0
804 -1424 1425 0
-1425 1442 0
807 -1425 1426 0
-1426 1443 0
808 -1426 1427 0
-1427 1444 0
811 -1427 1428 0
-1428 1445 0
812 -1428 0
-814 1429 0
-1429 1446 0
783 -1429 1430 0
-1430 1447 0
784 -1430 1431 0
-1431 1448 0
787 -1431 1432 0
-1432 1449 0
788 -1432 1433 0
-1433 1450 0
791 -1433 1434 0
-1434 1451 0
792 -1434 1435 0
-1435 1452 0
795 -1435 1436 0
-1436 1453 0
796 -1436 1437 0
-1437 1454 0
799 -1437 1438 0
-1438 1455 0
800 -1438 1439 0
-1439 1456 0
803 -1439 1440 0
-1440 1457 0
804 -1440 1441 0
-1441 1458 0
807 -1441 1442 0
-1442 1459 0
808 -1442 1443 0
-1443 1460 0
811 -1443 1444 0
-1444 1461 0
812 -1444 1445 0
-1445 1462 0
815 -1445 0
783 1446 0
784 -1446 1447 0
787 -1447 1448 0
788 -1448 1449 0
791 -1449 1450 0
792 -1450 1451 0
795 -1451 1452 0
796 -1452 1453 0
799 -1453 1454 0
800 -1454 1455 0
803 -1455 1456 0
804 -1456 1457 0
807 -1457 1458 0
808 -1458 1459 0
811 -1459 1460 0
812 -1460 1461 0
815 -1461 1462 0
816 -1462 0
-1463 1 0
-1463 7 0
1463 -1 -7 0
-1464 10 0
-1464 16 0
1464 -10 -16 0
-1465 1 0
-1465 16 0
1465 -1 -16 0
-1466 10 0
-1466 7 0
1466 -10 -7 0
-1467 2 0
-1467 8 0
1467 -2 -8 0
-1468 11 0
-1468 17 0
1468 -11 -17 0
-1469 2 0
-1469 17 0
1469 -2 -17 0
-1470 11 0
-1470 8 0
1470 -11 -8 0
-1471 3 0
-1471 9 0
1471 -3 -9 0
-1472 12 0
-1472 18 0
1472 -12 -18 0
-1473 3 0
-1473 18 0
1473 -3 -18 0
-1474 12 0
-1474 9 0
1474 -12 -9 0
-1475 4 0
-1475 1 0
1475 -4 -1 0
-1476 13 0
-1476 10 0
1476 -13 -10 0
-1477 4 0
-1477 10 0
1477 -4 -10 0
-1478 13 0
-1478 1 0
1478 -13 -1 0
-1479 5 0
-1479 2 0
1479 -5 -2 0
-1480 14 0
-1480 11 0
1480 -14 -11 0
-1481 5 0
-1481 11 0
1481 -5 -11 0
-1482 14 0
-1482 2 0
1482 -14 -2 0
-1483 6 0
-1483 3 0
1483 -6 -3 0
-1484 15 0
-1484 12 0
1484 -15 -12 0
-1485 6 0
-1485 12 0
1485 -6 -12 0
-1486 15 0
-1486 3 0
1486 -15 -3 0
-1487 7 0
-1487 4 0
1487 -7 -4 0
-1488 16 0
-1488 13 0
1488 -16 -13 0
-1489 7 0
-1489 13 0
1489 -7 -13 0
-1490 16 0
-1490 4 0
1490 -16 -4 0
-1491 8 0
-1491 5 0
1491 -8 -5 0
-1492 17 0
-1492 14 0
1492 -17 -14 0
-1493 8 0
-1493 14 0
1493 -8 -14 0
-1494 17 0
-1494 5 0
1494 -17 -5 0
-1495 9 0
-1495 6 0
1495 -9 -6 0
-1496 18 0
-1496 15 0
1496 -18 -15 0
-1497 9 0
-1497 15 0
1497 -9 -15 0
-1498 18 0
-1498 6 0
1498 -18 -6 0
1463 1499 0
-1499 1500 0
1464 -1499 1501 0
-1501 1502 0
1467 -1501 1503 0
-1503 1504 0
1468 -1503 1505 0
-1505 1506 0
1471 -1505 1507 0
-1507 1508 0
1472 -1507 1509 0
-1509 1510 0
1475 -1509 1511 0
-1511 1512 0
1476 -1511 1513 0
-1513 1514 0
1479 -1513 1515 0
-1515 1516 0
1480 -1515 1517 0
-1517 1518 0
1483 -1517 1519 0
-1519 1520 0
1484 -1519 1521 0
-1521 1522 0
1487 -1521 1523 0
-1523 1524 0
1488 -1523 1525 0
-1525 1526 0
1491 -1525 1527 0
-1527 1528 0
1492 -1527 1529 0
-1529 1530 0
1495 -1529 1531 0
-1531 1532 0
1496 -1531 1533 0
-1533 1534 0
-1465 -1533 1535 0
-1535 1536 0
-1466 -1535 0
1464 1500 0
-1500 1537 0
1467 -1500 1502 0
-1502 1538 0
1468 -1502 1504 0
-1504 1539 0
1471 -1504 1506 0
-1506 1540 0
1472 -1506 1508 0
-1508 1541 0
1475 -1508 1510 0
-1510 1542 0
1476 -1510 1512 0
-1512 1543 0
1479 -1512 1514 0
-1514 1544 0
1480 -1514 1516 0
-1516 1545 0
1483 -1516 1518 0
-1518 1546 0
1484 -1518 1520 0
-1520 1547 0
1487 -1520 1522 0
-1522 1548 0
1488 -1522 1524 0
-1524 1549 0
1491 -1524 1526 0
-1526 1550 0
1492 -1526 1528 0
-1528 1551 0
1495 -1528 1530 0
-1530 1552 0
1496 -1530 1532 0
-1532 1553 0
-1465 -1532 1534 0
-1534 1554 0
-1466 -1534 1536 0
-1536 1555 0
-1469 -1536 0
1467 1537 0
-1537 1556 0
1468 -1537 1538 0
-1538 1557 0
1471 -1538 1539 0
-1539 1558 0
1472 -1539 1540 0
-1540 1559 0
1475 -1540 1541 0
-1541 1560 0
1476 -1541 1542 0
-1542 1561 0
1479 -1542 1543 0
-1543 1562 0
1480 -1543 1544 0
-1544 1563 0
1483 -1544 1545 0
-1545 1564 0
1484 -1545 1546 0
-1546 1565 0
1487 -1546 1547 0
-1547 1566 0
1488 -1547 1548 0
-1548 1567 0
1491 -1548 1549 0
-1549 1568 0
1492 -1549 1550 0
-1550 1569 0
1495 -1550 1551 0
-1551 1570 0
1496 -1551 1552 0
-1552 1571 0
-1465 -1552 1553 0
-1553 1572 0
-1466 -1553 1554 0
-1554 1573 0
-1469 -1554 1555 0
-1555 1574 0
-1470 -1555 0
1468 1556 0
-1556 1575 0
1471 -1556 1557 0
-1557 1576 0
1472 -1557 1558 0
-1558 1577 0
1475 -1558 1559 0
-1559 1578 0
1476 -1559 1560 0
-1560 1579 0
1479 -1560 1561 0
-1561 1580 0
1480 -1561 1562 0
-1562 1581 0
1483 -1562 1563 0
-1563 1582 0
1484 -1563 1564 0
-1564 1583 0
1487 -1564 1565 0
-1565 1584 0
1488 -1565 1566 0
-1566 1585 0
1491 -1566 1567 0
-1567 1586 0
1492 -1567 1568 0
-1568 1587 0
1495 -1568 1569 0
-1569 1588 0
1496 -1569 1570 0
-1570 1589 0
-1465 -1570 1571 0
-1571 1590 0
-1466 -1571 1572 0
-1572 1591 0
-1469 -1572 1573 0
-1573 1592 0
-1470 -1573 1574 0
-1574 1593 0
-1473 -1574 0
1471 1575 0
-1575 1594 0
1472 -1575 1576 0
-1576 1595 0
1475 -1576 1577 0
-1577 1596 0
1476 -1577 1578 0
-1578 1597 0
1479 -1578 1579 0
-1579 1598 0
1480 -1579 1580 0
-1580 1599 0
1483 -1580 1581 0
-1581 1600 0
1484 -1581 1582 0
-1582 1601 0
1487 -1582 1583 0
-1583 1602 0
1488 -1583 1584 0
-1584 1603 0
1491 -1584 1585 0
-1585 1604 0
1492 -1585 1586 0
-1586 1605 0
1495 -1586 1587 0
-1587 1606 0
1496 -1587 1588 0
-1588 1607 0
-1465 -1588 1589 0
-1589 1608 0
-1466 -1589 1590 0
-1590 1609 0
-1469 -1590 1591 0
-1591 1610 0
-1470 -1591 1592 0
-1592 1611 0
-1473 -1592 1593 0
-1593 1612 0
-1474 -1593 0
1472 1594 0
-1594 1613 0
1475 -1594 1595 0
-1595 1614 0
1476 -1595 1596 0
-1596 1615 0
1479 -1596 1597 0
-1597 1616 0
1480 -1597 1598 0
-1598 1617 0
1483 -1598 1599 0
-1599 1618 0
1484 -1599 1600 0
-1600 1619 0
1487 -1600 1601 0
-1601 1620 0
1488 -1601 1602 0
-1602 1621 0
1491 -1602 1603 0
-1603 1622 0
1492 -1603 1604 0
-1604 1623 0
1495 -1604 1605 0
-1605 1624 0
1496 -1605 1606 0
-1606 1625 0
-1465 -1606 1607 0
-1607 1626 0
-1466 -1607 1608 0
-1608 1627 0
-1469 -1608 1609 0
-1609 1628 0
-1470 -1609 1610 0
-1610 1629 0
-1473 -1610 1611 0
-1611 1630 0
-1474 -1611 1612 0
-1612 1631 0
-1477 -1612 0
1475 1613 0
-1613 1632 0
1476 -1613 1614 0
-1614 1633 0
1479 -1614 1615 0
-1615 1634 0
1480 -1615 1616 0
-1616 1635 0
1483 -1616 1617 0
-1617 1636 0
1484 -1617 1618 0
-1618 1637 0
1487 -1618 1619 0
-1619 1638 0
1488 -1619 1620 0
-1620 1639 0
1491 -1620 1621 0
-1621 1640 0
1492 -1621 1622 0
-1622 1641 0
1495 -1622 1623 0
-1623 1642 0
1496 -1623 1624 0
-1624 1643 0
-1465 -1624 1625 0
-1625 1644 0
-1466 -1625 1626 0
-1626 1645 0
-1469 -1626 1627 0
-1627 1646 0
-1470 -1627 1628 0
-1628 1647 0
-1473 -1628 1629 0
-1629 1648 0
-1474 -1629 1630 0
-1630 1649 0
-1477 -1630 1631 0
-1631 1650 0
-1478 -1631 0
1476 1632 0
-1632 1651 0
1479 -1632 1633 0
-1633 1652 0
1480 -1633 1634 0
-1634 1653 0
1483 -1634 1635 0
-1635 1654 0
1484 -1635 1636 0
-1636 1655 0
1487 -1636 1637 0
-1637 1656 0
1488 -1637 1638 0
-1638 1657 0
1491 -1638 1639 0
-1639 1658 0
1492 -1639 1640 0
-1640 1659 0
1495 -1640 1641 0
-1641 1660 0
1496 -1641 1642 0
-1642 1661 0
-1465 -1642 1643 0
-1643 1662 0
-1466 -1643 1644 0
-1644 1663 0
-1469 -1644 1645 0
-1645 1664 0
-1470 -1645 1646 0
-1646 1665 0
-1473 -1646 1647 0
-1647 1666 0
-1474 -1647 1648 0
-1648 1667 0
-1477 -1648 1649 0
-1649 1668 0
-1478 -1649 1650 0
-1650 1669 0
-1481 -1650 0
1479 1651 0
-1651 1670 0
1480 -1651 1652 0
-1652 1671 0
1483 -1652 1653 0
-1653 1672 0
1484 -1653 1654 0
-1654 1673 0
1487 -1654 1655 0
-1655 1674 0
1488 -1655 1656 0
-1656 1675 0
1491 -1656 1657 0
-1657 1676 0
1492 -1657 1658 0
-1658 1677 0
1495 -1658 1659 0
-1659 1678 0
1496 -1659 1660 0
-1660 1679 0
-1465 -1660 1661 0
-1661 1680 0
-1466 -1661 1662 0
-1662 1681 0
-1469 -1662 1663 0
-1663 1682 0
-1470 -1663 1664 0
-1664 1683 0
-1473 -1664 1665 0
-1665 1684 0
-1474 -1665 1666 0
-1666 1685 0
-1477 -1666 1667 0
-1667 1686 0
-1478 -1667 1668 0
-1668 1687 0
-1481 -1668 1669 0
-1669 1688 0
-1482 -1669 0
1480 1670 0
-1670 1689 0
1483 -1670 1671 0
-1671 1690 0
1484 -1671 1672 0
-1672 1691 0
1487 -1672 1673 0
-1673 1692 0
1488 -1673 1674 0
-1674 1693 0
1491 -1674 1675 0
-1675 1694 0
1492 -1675 1676 0
-1676 1695 0
1495 -1676 1677 0
-1677 1696 0
1496 -1677 1678 0
-1678 1697 0
-1465 -1678 1679 0
-1679 1698 0
-1466 -1679 1680 0
-1680 1699 0
-1469 -1680 1681 0
-1681 1700 0
-1470 -1681 1682 0
-1682 1701 0
-1473 -1682 1683 0
-1683 1702 0
-1474 -1683 1684 0
-1684 1703 0
-1477 -1684 1685 0
-1685 1704 0
-1478 -1685 1686 0
-1686 1705 0
-1481 -1686 1687 0
-1687 1706 0
-1482 -1687 1688 0
-1688 1707 0
-1485 -1688 0
1483 1689 0
-1689 1708 0
1484 -1689 1690 0
-1690 1709 0
1487 -1690 1691 0
-1691 1710 0
1488 -1691 1692 0
-1692 1711 0
1491 -1692 1693 0
-1693 1712 0
1492 -1693 1694 0
-1694 1713 0
1495 -1694 1695 0
-1695 1714 0
1496 -1695 1696 0
-1696 1715 0
-1465 -1696 1697 0
-1697 1716 0
-1466 -1697 1698 0
-1698 1717 0
-1469 -1698 1699 0
-1699 1718 0
-1470 -1699 1700 0
-1700 1719 0
-1473 -1700 1701 0
-1701 1720 0
-1474 -1701 1702 0
-1702 1721 0
-1477 -1702 1703 0
-1703 1722 0
-1478 -1703 1704 0
-1704 1723 0
-1481 -1704 1705 0
-1705 1724 0
-1482 -1705 1706 0
-1706 1725 0
-1485 -1706 1707 0
-1707 1726 0
-1486 -1707 0
1484 1708 0
-1708 1727 0
1487 -1708 1709 0
-1709 1728 0
1488 -1709 1710 0
-1710 1729 0
1491 -1710 1711 0
-1711 1730 0
1492 -1711 1712 0
-1712 1731 0
1495 -1712 1713 0
-1713 1732 0
1496 -1713 1714 0
-1714 1733 0
-1465 -1714 1715 0
-1715 1734 0
-1466 -1715 1716 0
-1716 1735 0
-1469 -1716 1717 0
-1717 1736 0
-1470 -1717 1718 0
-1718 1737 0
-1473 -1718 1719 0
-1719 1738 0
-1474 -1719 1720 0
-1720 1739 0
-1477 -1720 1721 0
-1721 1740 0
-1478 -1721 1722 0
-1722 1741 0
-1481 -1722 1723 0
-1723 1742 0
-1482 -1723 1724 0
-1724 1743 0
-1485 -1724 1725 0
-1725 1744 0
-1486 -1725 1726 0
-1726 1745 0
-1489 -1726 0
1487 1727 0
-1727 1746 0
1488 -1727 1728 0
-1728 1747 0
1491 -1728 1729 0
-1729 1748 0
1492 -1729 1730 0
-1730 1749 0
1495 -1730 1731 0
-1731 1750 0
1496 -1731 1732 0
-1732 1751 0
-1465 -1732 1733 0
-1733 1752 0
-1466 -1733 1734 0
-1734 1753 0
-1469 -1734 1735 0
-1735 1754 0
-1470 -1735 1736 0
-1736 1755 0
-1473 -1736 1737 0
-1737 1756 0
-1474 -1737 1738 0
-1738 1757 0
-1477 -1738 1739 0
-1739 1758 0
-1478 -1739 1740 0
-1740 1759 0
-1481 -1740 1741 0
-1741 1760 0
-1482 -1741 1742 0
-1742 1761 0
-1485 -1742 1743 0
-1743 1762 0
-1486 -1743 1744 0
-1744 1763 0
-1489 -1744 1745 0
-1745 1764 0
-1490 -1745 0
1488 1746 0
-1746 1765 0
1491 -1746 1747 0
-1747 1766 0
1492 -1747 1748 0
-1748 1767 0
1495 -1748 1749 0
-1749 1768 0
1496 -1749 1750 0
-1750 1769 0
-1465 -1750 1751 0
-1751 1770 0
-1466 -1751 1752 0
-1752 1771 0
-1469 -1752 1753 0
-1753 1772 0
-1470 -1753 1754 0
-1754 1773 0
-1473 -1754 1755 0
-1755 1774 0
-1474 -1755 1756 0
-1756 1775 0
-1477 -1756 1757 0
-1757 1776 0
-1478 -1757 1758 0
-1758 1777 0
-1481 -1758 1759 0
-1759 1778 0
-1482 -1759 1760 0
-1760 1779 0
-1485 -1760 1761 0
-1761 1780 0
-1486 -1761 1762 0
-1762 1781 0
-1489 -1762 1763 0
-1763 1782 0
-1490 -1763 1764 0
-1764 1783 0
-1493 -1764 0
1491 1765 0
-1765 1784 0
1492 -1765 1766 0
-1766 1785 0
1495 -1766 1767 0
-1767 1786 0
1496 -1767 1768 0
-1768 1787 0
-1465 -1768 1769 0
-1769 1788 0
-1466 -1769 1770 0
-1770 1789 0
-1469 -1770 1771 0
-1771 1790 0
-1470 -1771 1772 0
-1772 1791 0
-1473 -1772 1773 0
-1773 1792 0
-1474 -1773 1774 0
-1774 1793 0
-1477 -1774 1775 0
-1775 1794 0
-1478 -1775 1776 0
-1776 1795 0
-1481 -1776 1777 0
-1777 1796 0
-1482 -1777 1778 0
-1778 1797 0
-1485 -1778 1779 0
-1779 1798 0
-1486 -1779 1780 0
-1780 1799 0
-1489 -1780 1781 0
-1781 1800 0
-1490 -1781 1782 0
-1782 1801 0
-1493 -1782 1783 0
-1783 1802 0
-1494 -1783 0
1492 1784 0
-1784 1803 0
1495 -1784 1785 0
-1785 1804 0
1496 -1785 1786 0
-1786 1805 0
-1465 -1786 1787 0
-1787 1806 0
-1466 -1787 1788 0
-1788 1807 0
-1469 -1788 1789 0
-1789 1808 0
-1470 -1789 1790 0
-1790 1809 0
-1473 -1790 1791 0
-1791 1810 0
-1474 -1791 1792 0
-1792 1811 0
-1477 -1792 1793 0
-1793 1812 0
-1478 -1793 1794 0
-1794 1813 0
-1481 -1794 1795 0
-1795 1814 0
-1482 -1795 1796 0
-1796 1815 0
-1485 -1796 1797 0
-1797 1816 0
-1486 -1797 1798 0
-1798 1817 0
-1489 -1798 1799 0
-1799 1818 0
-1490 -1799 1800 0
-1800 1819 0
-1493 -1800 1801 0
-1801 1820 0
-1494 -1801 1802 0
-1802 1821 0
-1497 -1802 0
1495 1803 0
1496 -1803 1804 0
-1465 -1804 1805 0
-1466 -1805 1806 0
-1469 -1806 1807 0
-1470 -1807 1808 0
-1473 -1808 1809 0
-1474 -1809 1810 0
-1477 -1810 1811 0
-1478 -1811 1812 0
-1481 -1812 1813 0
-1482 -1813 1814 0
-1485 -1814 1815 0
-1486 -1815 1816 0
-1489 -1816 1817 0
-1490 -1817 1818 0
-1493 -1818 1819 0
-1494 -1819 1820 0
-1497 -1820 1821 0
-1498 -1821 0
-1463 1822 0
-1822 1823 0
-1464 -1822 1824 0
-1824 1825 0
-1467 -1824 1826 0
-1826 1827 0
-1468 -1826 1828 0
-1828 1829 0
-1471 -1828 1830 0
-1830 1831 0
-1472 -1830 1832 0
-1832 1833 0
-1475 -1832 1834 0
-1834 1835 0
-1476 -1834 1836 0
-1836 1837 0
-1479 -1836 1838 0
-1838 1839 0
-1480 -1838 1840 0
-1840 1841 0
-1483 -1840 1842 0
-1842 1843 0
-1484 -1842 1844 0
-1844 1845 0
-1487 -1844 1846 0
-1846 1847 0
-1488 -1846 1848 0
-1848 1849 0
-1491 -1848 1850 0
-1850 1851 0
-1492 -1850 1852 0
-1852 1853 0
-1495 -1852 1854 0
-1854 1855 0
-1496 -1854 0
-1464 1823 0
-1823 1856 0
-1467 -1823 1825 0
-1825 1857 0
-1468 -1825 1827 0
-1827 1858 0
-1471 -1827 1829 0
-1829 1859 0
-1472 -1829 1831 0
-1831 1860 0
-1475 -1831 1833 0
-1833 1861 0
-1476 -1833 1835 0
-1835 1862 0
-1479 -1835 1837 0
-1837 1863 0
-1480 -1837 1839 0
-1839 1864 0
-1483 -1839 1841 0
-1841 1865 0
-1484 -1841 1843 0
-1843 1866 0
-1487 -1843 1845 0
-1845 1867 0
-1488 -1845 1847 0
-1847 1868 0
-1491 -1847 1849 0
-1849 1869 0
-1492 -1849 1851 0
-1851 1870 0
-1495 -1851 1853 0
-1853 1871 0
-1496 -1853 1855 0
-1855 1872 0
1465 -1855 0
-1467 1856 0
-1856 1873 0
-1468 -1856 1857 0
-1857 1874 0
-1471 -1857 1858 0
-1858 1875 0
-1472 -1858 1859 0
-1859 1876 0
-1475 -1859 1860 0
-1860 1877 0
-1476 -1860 1861 0
-1861 1878 0
-1479 -1861 1862 0
-1862 1879 0
-1480 -1862 1863 0
-1863 1880 0
-1483 -1863 1864 0
-1864 1881 0
-1484 -1864 1865 0
-1865 1882 0
-1487 -1865 1866 0
-1866 1883 0
-1488 -1866 1867 0
-1867 1884 0
-1491 -1867 1868 0
-1868 1885 0
-1492 -1868 1869 0
-1869 1886 0
-1495 -1869 1870 0
-1870 1887 0
-1496 -1870 1871 0
-1871 1888 0
1465 -1871 1872 0
-1872 1889 0
1466 -1872 0
-1468 1873 0
-1873 1890 0
-1471 -1873 1874 0
-1874 1891 0
-1472 -1874 1875 0
-1875 1892 0
-1475 -1875 1876 0
-1876 1893 0
-1476 -1876 1877 0
-1877 1894 0
-1479 -1877 1878 0
-1878 1895 0
-1480 -1878 1879 0
-1879 1896 0
-1483 -1879 1880 0
-1880 1897 0
-1484 -1880 1881 0
-1881 1898 0
-1487 -1881 1882 0
-1882 1899 0
-1488 -1882 1883 0
-1883 1900 0
-1491 -1883 1884 0
-1884 1901 0
-1492 -1884 1885 0
-1885 1902 0
-1495 -1885 1886 0
-1886 1903 0
-1496 -1886 1887 0
-1887 1904 0
1465 -1887 1888 0
-1888 1905 0
1466 -1888 1889 0
-1889 1906 0
1469 -1889 0
-1471 1890 0
-1890 1907 0
-1472 -1890 1891 0
-1891 1908 0
-1475 -1891 1892 0
-1892 1909 0
-1476 -1892 1893 0
-1893 1910 0
-1479 -1893 1894 0
-1894 1911 0
-1480 -1894 1895 0
-1895 1912 0
-1483 -1895 1896 0
-1896 1913 0
-1484 -1896 1897 0
-1897 1914 0
-1487 -1897 1898 0
-1898 1915 0
-1488 -1898 1899 0
-1899 1916 0
-1491 -1899 1900 0
-1900 1917 0
-1492 -1900 1901 0
-1901 1918 0
-1495 -1901 1902 0
-1902 1919 0
-1496 -1902 1903 0
-1903 1920 0
1465 -1903 1904 0
-1904 1921 0
1466 -1904 1905 0
-1905 1922 0
1469 -1905 1906 0
-1906 1923 0
1470 -1906 0
-1472 1907 0
-1907 1924 0
-1475 -1907 1908 0
-1908 1925 0
-1476 -1908 1909 0
-1909 1926 0
-1479 -1909 1910 0
-1910 1927 0
-1480 -1910 1911 0
-1911 1928 0
-1483 -1911 1912 0
-1912 1929 0
-1484 -1912 1913 0
-1913 1930 0
-1487 -1913 1914 0
-1914 1931 0
-1488 -1914 1915 0
-1915 1932 0
-1491 -1915 1916 0
-1916 1933 0
-1492 -1916 1917 0
-1917 1934 0
-1495 -1917 1918 0
-1918 1935 0
-1496 -1918 1919 0
-1919 1936 0
1465 -1919 1920 0
-1920 1937 0
1466 -1920 1921 0
-1921 1938 0
1469 -1921 1922 0
-1922 1939 0
1470 -1922 1923 0
-1923 1940 0
1473 -1923 0
-1475 1924 0
-1924 1941 0
-1476 -1924 1925 0
-1925 1942 0
-1479 -1925 1926 0
-1926 1943 0
-1480 -1926 1927 0
-1927 1944 0
-1483 -1927 1928 0
-1928 1945 0
-1484 -1928 1929 0
-1929 1946 0
-1487 -1929 1930 0
-1930 1947 0
-1488 -1930 1931 0
-1931 1948 0
-1491 -1931 1932 0
-1932 1949 0
-1492 -1932 1933 0
-1933 1950 0
-1495 -1933 1934 0
-1934 1951 0
-1496 -1934 1935 0
-1935 1952 0
1465 -1935 1936 0
-1936 1953 0
1466 -1936 1937 0
-1937 1954 0
1469 -1937 1938 0
-1938 1955 0
1470 -1938 1939 0
-1939 1956 0
1473 -1939 1940 0
-1940 1957 0
1474 -1940 0
-1476 1941 0
-1941 1958 0
-1479 -1941 1942 0
-1942 1959 0
-1480 -1942 1943 0
-1943 1960 0
-1483 -1943 1944 0
-1944 1961 0
-1484 -1944 1945 0
-1945 1962 0
-1487 -1945 1946 0
-1946 1963 0
-1488 -1946 1947 0
-1947 1964 0
-1491 -1947 1948 0
-1948 1965 0
-1492 -1948 1949 0
-1949 1966 0
-1495 -1949 1950 0
-1950 1967 0
-1496 -1950 1951 0
-1951 1968 0
1465 -1951 1952 0
-1952 1969 0
1466 -1952 1953 0
-1953 1970 0
1469 -1953 1954 0
-1954 1971 0
1470 -1954 1955 0
-1955 1972 0
1473 -1955 1956 0
-1956 1973 0
1474 -1956 1957 0
-1957 1974 0
1477 -1957 0
-1479 1958 0
-1958 1975 0
-1480 -1958 1959 0
-1959 1976 0
-1483 -1959 1960 0
-1960 1977 0
-1484 -1960 1961 0
-1961 1978 0
-1487 -1961 1962 0
-1962 1979 0
-1488 -1962 1963 0
-1963 1980 0
-1491 -1963 1964 0
-1964 1981 0
-1492 -1964 1965 0
-1965 1982 0
-1495 -1965 1966 0
-1966 1983 0
-1496 -1966 1967 0
-1967 1984 0
1465 -1967 1968 0
-1968 1985 0
1466 -1968 1969 0
-1969 1986 0
1469 -1969 1970 0
-1970 1987 0
1470 -1970 1971 0
-1971 1988 0
1473 -1971 1972 0
-1972 1989 0
1474 -1972 1973 0
-1973 1990 0
1477 -1973 1974 0
-1974 1991 0
1478 -1974 0
-1480 1975 0
-1975 1992 0
-1483 -1975 1976 0
-1976 1993 0
-1484 -1976 1977 0
-1977 1994 0
-1487 -1977 1978 0
-1978 1995 0
-1488 -1978 1979 0
-1979 1996 0
-1491 -1979 1980 0
-1980 1997 0
-1492 -1980 1981 0
-1981 1998 0
-1495 -1981 1982 0
-1982 1999 0
-1496 -1982 1983 0
-1983 2000 0
1465 -1983 1984 0
-1984 2001 0
1466 -1984 1985 0
-1985 2002 0
1469 -1985 1986 0
-1986 2003 0
1470 -1986 1987 0
-1987 2004 0
1473 -1987 1988 0
-1988 2005 0
1474 -1988 1989 0
-1989 2006 0
1477 -1989 1990 0
-1990 2007 0
1478 -1990 1991 0
-1991 2008 0
1481 -1991 0
-1483 1992 0
-1992 2009 0
-1484 -1992 1993 0
-1993 2010 0
-1487 -1993 1994 0
-1994 2011 0
-1488 -1994 1995 0
-1995 2012 0
-1491 -1995 1996 0
-1996 2013 0
-1492 -1996 1997 0
-1997 2014 0
-1495 -1997 1998 0
-1998 2015 0
-1496 -1998 1999 0
-1999 2016 0
1465 -1999 2000 0
-2000 2017 0
1466 -2000 2001 0
-2001 2018 0
1469 -2001 2002 0
-2002 2019 0
1470 -2002 2003 0
-2003 2020 0
1473 -2003 2004 0
-2004 2021 0
1474 -2004 2005 0
-2005 2022 0
1477 -2005 2006 0
-2006 2023 0
1478 -2006 2007 0
-2007 2024 0
1481 -2007 2008 0
-2008 2025 0
1482 -2008 0
-1484 2009 0
-2009 2026 0
-1487 -2009 2010 0
-2010 2027 0
-1488 -2010 2011 0
-2011 2028 0
-1491 -2011 2012 0
-2012 2029 0
-1492 -2012 2013 0
-2013 2030 0
-1495 -2013 2014 0
-2014 2031 0
-1496 -2014 2015 0
-2015 2032 0
1465 -2015 2016 0
-2016 2033 0
1466 -2016 2017 0
-2017 2034 0
1469 -2017 2018 0
-2018 2035 0
1470 -2018 2019 0
-2019 2036 0
1473 -2019 2020 0
-2020 2037 0
1474 -2020 2021 0
-2021 2038 0
1477 -2021 2022 0
-2022 2039 0
1478 -2022 2023 0
-2023 2040 0
1481 -2023 2024 0
-2024 2041 0
1482 -2024 2025 0
-2025 2042 0
1485 -2025 0
-1487 2026 0
-2026 2043 0
-1488 -2026 2027 0
-2027 2044 0
-1491 -2027 2028 0
-2028 2045 0
-1492 -2028 2029 0
-2029 2046 0
-1495 -2029 2030 0
-2030 2047 0
-1496 -2030 2031 0
-2031 2048 0
1465 -2031 2032 0
-2032 2049 0
1466 -2032 2033 0
-2033 2050 0
1469 -2033 2034 0
-2034 2051 0
1470 -2034 2035 0
-2035 2052 0
1473 -2035 2036 0
-2036 2053 0
1474 -2036 2037 0
-2037 2054 0
1477 -2037 2038 0
-2038 2055 0
1478 -2038 2039 0
-2039 2056 0
1481 -2039 2040 0
-2040 2057 0
1482 -2040 2041 0
-2041 2058 0
1485 -2041 2042 0
-2042 2059 0
1486 -2042 0
-1488 2043 0
-2043 2060 0
-1491 -2043 2044 0
-2044 2061 0
-1492 -2044 2045 0
-2045 2062 0
-1495 -2045 2046 0
-2046 2063 0
-1496 -2046 2047 0
-2047 2064 0
1465 -2047 2048 0
-2048 2065 0
1466 -2048 2049 0
-2049 2066 0
1469 -2049 2050 0
-2050 2067 0
1470 -2050 2051 0
-2051 2068 0
1473 -2051 2052 0
-2052 2069 0
1474 -2052 2053 0
-2053 2070 0
1477 -2053 2054 0
-2054 2071 0
1478 -2054 2055 0
-2055 2072 0
1481 -2055 2056 0
-2056 2073 0
1482 -2056 2057 0
-2057 2074 0
1485 -2057 2058 0
-2058 2075 0
1486 -2058 2059 0
-2059 2076 0
1489 -2059 0
-1491 2060 0
-2060 2077 0
-1492 -2060 2061 0
-2061 2078 0
-1495 -2061 2062 0
-2062 2079 0
-1496 -2062 2063 0
-2063 2080 0
1465 -2063 2064 0
-2064 2081 0
1466 -2064 2065 0
-2065 2082 0
1469 -2065 2066 0
-2066 2083 0
1470 -2066 2067 0
-2067 2084 0
1473 -2067 2068 0
-2068 2085 0
1474 -2068 2069 0
-2069 2086 0
1477 -2069 2070 0
-2070 2087 0
1478 -2070 2071 0
-2071 2088 0
1481 -2071 2072 0
-2072 2089 0
1482 -2072 2073 0
-2073 2090 0
1485 -2073 2074 0
-2074 2091 0
1486 -2074 2075 0
-2075 2092 0
1489 -2075 2076 0
-2076 2093 0
1490 -2076 0
-1492 2077 0
-2077 2094 0
-1495 -2077 2078 0
-2078 2095 0
-1496 -2078 2079 0
-2079 2096 0
1465 -2079 2080 0
-2080 2097 0
1466 -2080 2081 0
-2081 2098 0
1469 -2081 2082 0
-2082 2099 0
1470 -2082 2083 0
-2083 2100 0
1473 -2083 2084 0
-2084 2101 0
1474 -2084 2085 0
-2085 2102 0
1477 -2085 2086 0
-2086 2103 0
1478 -2086 2087 0
-2087 2104 0
1481 -2087 2088 0
-2088 2105 0
1482 -2088 2089 0
-2089 2106 0
1485 -2089 2090 0
-2090 2107 0
1486 -2090 2091 0
-2091 2108 0
1489 -2091 2092 0
-2092 2109 0
1490 -2092 2093 0
-2093 2110 0
1493 -2093 0
-1495 2094 0
-2094 2111 0
-1496 -2094 2095 0
-2095 2112 0
1465 -2095 2096 0
-2096 2113 0
1466 -2096 2097 0
-2097 2114 0
1469 -2097 2098 0
-2098 2115 0
1470 -2098 2099 0
-2099 2116 0
1473 -2099 2100 0
-2100 2117 0
1474 -2100 2101 0
-2101 2118 0
1477 -2101 2102 0
-2102 2119 0
1478 -2102 2103 0
-2103 2120 0
1481 -2103 2104 0
-2104 2121 0
1482 -2104 2105 0
-2105 2122 0
1485 -2105 2106 0
-2106 2123 0
1486 -2106 2107 0
-2107 2124 0
1489 -2107 2108 0
-2108 2125 0
1490 -2108 2109 0
-2109 2126 0
1493 -2109 2110 0
-2110 2127 0
1494 -2110 0
-1496 2111 0
-2111 2128 0
1465 -2111 2112 0
-2112 2129 0
1466 -2112 2113 0
-2113 2130 0
1469 -2113 2114 0
-2114 2131 0
1470 -2114 2115 0
-2115 2132 0
1473 -2115 2116 0
-2116 2133 0
1474 -2116 2117 0
-2117 2134 0
1477 -2117 2118 0
-2118 2135 0
1478 -2118 2119 0
-2119 2136 0
1481 -2119 2120 0
-2120 2137 0
1482 -2120 2121 0
-2121 2138 0
1485 -2121 2122 0
-2122 2139 0
1486 -2122 2123 0
-2123 2140 0
1489 -2123 2124 0
-2124 2141 0
1490 -2124 2125 0
-2125 2142 0
1493 -2125 2126 0
-2126 2143 0
1494 -2126 2127 0
-2127 2144 0
1497 -2127 0
1465 2128 0
1466 -2128 2129 0
1469 -2129 2130 0
1470 -2130 2131 0
1473 -2131 2132 0
1474 -2132 2133 0
1477 -2133 2134 0
1478 -2134 2135 0
1481 -2135 2136 0
1482 -2136 2137 0
1485 -2137 2138 0
1486 -2138 2139 0
1489 -2139 2140 0
1490 -2140 2141 0
1493 -2141 2142 0
1494 -2142 2143 0
1497 -2143 2144 0
1498 -2144 0
-2145 1 0
-2145 9 0
2145 -1 -9 0
-2146 10 0
-2146 18 0
2146 -10 -18 0
-2147 1 0
-2147 18 0
2147 -1 -18 0
-2148 10 0
-2148 9 0
2148 -10 -9 0
-2149 2 0
-2149 7 0
2149 -2 -7 0
-2150 11 0
-2150 16 0
2150 -11 -16 0
-2151 2 0
-2151 16 0
2151 -2 -16 0
-2152 11 0
-2152 7 0
2152 -11 -7 0
-2153 3 0
-2153 8 0
2153 -3 -8 0
-2154 12 0
-2154 17 0
2154 -12 -17 0
-2155 3 0
-2155 17 0
2155 -3 -17 0
-2156 12 0
-2156 8 0
2156 -12 -8 0
-2157 4 0
-2157 3 0
2157 -4 -3 0
-2158 13 0
-2158 12 0
2158 -13 -12 0
-2159 4 0
-2159 12 0
2159 -4 -12 0
-2160 13 0
-2160 3 0
2160 -13 -3 0
-2161 5 0
-2161 1 0
2161 -5 -1 0
-2162 14 0
-2162 10 0
2162 -14 -10 0
-2163 5 0
-2163 10 0
2163 -5 -10 0
-2164 14 0
-2164 1 0
2164 -14 -1 0
-2165 6 0
-2165 2 0
2165 -6 -2 0
-2166 15 0
-2166 11 0
2166 -15 -11 0
-2167 6 0
-2167 11 0
2167 -6 -11 0
-2168 15 0
-2168 2 0
2168 -15 -2 0
-2169 7 0
-2169 6 0
2169 -7 -6 0
-2170 16 0
-2170 15 0
2170 -16 -15 0
-2171 7 0
-2171 15 0
2171 -7 -15 0
-2172 16 0
-2172 6 0
2172 -16 -6 0
-2173 8 0
-2173 4 0
2173 -8 -4 0
-2174 17 0
-2174 13 0
2174 -17 -13 0
-2175 8 0
-2175 13 0
2175 -8 -13 0
-2176 17 0
-2176 4 0
2176 -17 -4 0
-2177 9 0
-2177 5 0
2177 -9 -5 0
-2178 18 0
-2178 14 0
2178 -18 -14 0
-2179 9 0
-2179 14 0
2179 -9 -14 0
-2180 18 0
-2180 5 0
2180 -18 -5 0
2145 2181 0
-2181 2182 0
2146 -2181 2183 0
-2183 2184 0
2149 -2183 2185 0
-2185 2186 0
2150 -2185 2187 0
-2187 2188 0
2153 -2187 2189 0
-2189 2190 0
2154 -2189 2191 0
-2191 2192 0
2157 -2191 2193 0
-2193 2194 0
2158 -2193 2195 0
-2195 2196 0
2161 -2195 2197 0
-2197 2198 0
2162 -2197 2199 0
-2199 2200 0
2165 -2199 2201 0
-2201 2202 0
2166 -2201 2203 0
-2203 2204 0
2169 -2203 2205 0
-2205 2206 0
2170 -2205 2207 0
-2207 2208 0
2173 -2207 2209 0
-2209 2210 0
2174 -2209 2211 0
-2211 2212 0
2177 -2211 2213 0
-2213 2214 0
2178 -2213 2215 0
-2215 2216 0
-2147 -2215 2217 0
-2217 2218 0
-2148 -2217 0
2146 2182 0
-2182 2219 0
2149 -2182 2184 0
-2184 2220 0
2150 -2184 2186 0
-2186 2221 0
2153 -2186 2188 0
-2188 2222 0
2154 -2188 2190 0
-2190 2223 0
2157 -2190 2192 0
-2192 2224 0
2158 -2192 2194 0
-2194 2225 0
2161 -2194 2196 0
-2196 2226 0
2162 -2196 2198 0
-2198 2227 0
2165 -2198 2200 0
-2200 2228 0
2166 -2200 2202 0
-2202 2229 0
2169 -2202 2204 0
-2204 2230 0
2170 -2204 2206 0
-2206 2231 0
2173 -2206 2208 0
-2208 2232 0
2174 -2208 2210 0
-2210 2233 0
2177 -2210 2212 0
-2212 2234 0
2178 -2212 2214 0
-2214 2235 0
-2147 -2214 2216 0
-2216 2236 0
-2148 -2216 2218 0
-2218 2237 0
-2151 -2218 0
2149 2219 0
-2219 2238 0
2150 -2219 2220 0
-2220 2239 0
2153 -2220 2221 0
-2221 2240 0
2154 -2221 2222 0
-2222 2241 0
2157 -2222 2223 0
-2223 2242 0
2158 -2223 2224 0
-2224 2243 0
2161 -2224 2225 0
-2225 2244 0
2162 -2225 2226 0
-2226 2245 0
2165 -2226 2227 0
-2227 2246 0
2166 -2227 2228 0
-2228 2247 0
2169 -2228 2229 0
-2229 2248 0
2170 -2229 2230 0
-2230 2249 0
2173 -2230 2231 0
-2231 2250 0
2174 -2231 2232 0
-2232 2251 0
2177 -2232 2233 0
-2233 2252 0
2178 -2233 2234 0
-2234 2253 0
-2147 -2234 2235 0
-2235 2254 0
-2148 -2235 2236 0
-2236 2255 0
-2151 -2236 2237 0
-2237 2256 0
-2152 -2237 0
2150 2238 0
-2238 2257 0
2153 -2238 2239 0
-2239 2258 0
2154 -2239 2240 0
-2240 2259 0
2157 -2240 2241 0
-2241 2260 0
2158 -2241 2242 0
-2242 2261 0
2161 -2242 2243 0
-2243 2262 0
2162 -2243 2244 0
-2244 2263 0
2165 -2244 2245 0
-2245 2264 0
2166 -2245 2246 0
-2246 2265 0
2169 -2246 2247 0
-2247 2266 0
2170 -2247 2248 0
-2248 2267 0
2173 -2248 2249 0
-2249 2268 0
2174 -2249 2250 0
-2250 2269 0
2177 -2250 2251 0
-2251 2270 0
2178 -2251 2252 0
-2252 2271 0
-2147 -2252 2253 0
-2253 2272 0
-2148 -2253 2254 0
-2254 2273 0
-2151 -2254 2255 0
-2255 2274 0
-2152 -2255 2256 0
-2256 2275 0
-2155 -2256 0
2153 2257 0
-2257 2276 0
2154 -2257 2258 0
-2258 2277 0
2157 -2258 2259 0
-2259 2278 0
2158 -2259 2260 0
-2260 2279 0
2161 -2260 2261 0
-2261 2280 0
2162 -2261 2262 0
-2262 2281 0
2165 -2262 2263 0
-2263 2282 0
2166 -2263 2264 0
-2264 2283 0
2169 -2264 2265 0
-2265 2284 0
2170 -2265 2266 0
-2266 2285 0
2173 -2266 2267 0
-2267 2286 0
2174 -2267 2268 0
-2268 2287 0
2177 -2268 2269 0
-2269 2288 0
2178 -2269 2270 0
-2270 2289 0
-2147 -2270 2271 0
-2271 2290 0
-2148 -2271 2272 0
-2272 2291 0
-2151 -2272 2273 0
-2273 2292 0
-2152 -2273 2274 0
-2274 2293 0
-2155 -2274 2275 0
-2275 2294 0
-2156 -2275 0
2154 2276 0
-2276 2295 0
2157 -2276 2277 0
-2277 2296 0
2158 -2277 2278 0
-2278 2297 0
2161 -2278 2279 0
-2279 2298 0
2162 -2279 2280 0
-2280 2299 0
2165 -2280 2281 0
-2281 2300 0
2166 -2281 2282 0
-2282 2301 0
2169 -2282 2283 0
-2283 2302 0
2170 -2283 2284 0
-2284 2303 0
2173 -2284 2285 0
-2285 2304 0
2174 -2285 2286 0
-2286 2305 0
2177 -2286 2287 0
-2287 2306 0
2178 -2287 2288 0
-2288 2307 0
-2147 -2288 2289 0
-2289 2308 0
-2148 -2289 2290 0
-2290 2309 0
-2151 -2290 2291 0
-2291 2310 0
-2152 -2291 2292 0
-2292 2311 0
-2155 -2292 2293 0
-2293 2312 0
-2156 -2293 2294 0
-2294 2313 0
-2159 -2294 0
2157 2295 0
-2295 2314 0
2158 -2295 2296 0
-2296 2315 0
2161 -2296 2297 0
-2297 2316 0
2162 -2297 2298 0
-2298 2317 0
2165 -2298 2299 0
-2299 2318 0
2166 -2299 2300 0
-2300 2319 0
2169 -2300 2301 0
-2301 2320 0
2170 -2301 2302 0
-2302 2321 0
2173 -2302 2303 0
-2303 2322 0
2174 -2303 2304 0
-2304 2323 0
2177 -2304 2305 0
-2305 2324 0
2178 -2305 2306 0
-2306 2325 0
-2147 -2306 2307 0
-2307 2326 0
-2148 -2307 2308 0
-2308 2327 0
-2151 -2308 2309 0
-2309 2328 0
-2152 -2309 2310 0
-2310 2329 0
-2155 -2310 2311 0
-2311 2330 0
-2156 -2311 2312 0
-2312 2331 0
-2159 -2312 2313 0
-2313 2332 0
-2160 -2313 0
2158 2314 0
-2314 2333 0
2161 -2314 2315 0
-2315 2334 0
2162 -2315 2316 0
-2316 2335 0
2165 -2316 2317 0
-2317 2336 0
2166 -2317 2318 0
-2318 2337 0
2169 -2318 2319 0
-2319 2338 0
2170 -2319 2320 0
-2320 2339 0
2173 -2320 2321 0
-2321 2340 0
2174 -2321 2322 0
-2322 2341 0
2177 -2322 2323 0
-2323 2342 0
2178 -2323 2324 0
-2324 2343 0
-2147 -2324 2325 0
-2325 2344 0
-2148 -2325 2326 0
-2326 2345 0
-2151 -2326 2327 0
-2327 2346 0
-2152 -2327 2328 0
-2328 2347 0
-2155 -2328 2329 0
-2329 2348 0
-2156 -2329 2330 0
-2330 2349 0
-2159 -2330 2331 0
-2331 2350 0
-2160 -2331 2332 0
-2332 2351 0
-2163 -2332 0
2161 2333 0
-2333 2352 0
2162 -2333 2334 0
-2334 2353 0
2165 -2334 2335 0
-2335 2354 0
2166 -2335 2336 0
-2336 2355 0
2169 -2336 2337 0
-2337 2356 0
2170 -2337 2338 0
-2338 2357 0
2173 -2338 2339 0
-2339 2358 0
2174 -2339 2340 0
-2340 2359 0
2177 -2340 2341 0
-2341 2360 0
2178 -2341 2342 0
-2342 2361 0
-2147 -2342 2343 0
-2343 2362 0
-2148 -2343 2344 0
-2344 2363 0
-2151 -2344 2345 0
-2345 2364 0
-2152 -2345 2346 0
-2346 2365 0
-2155 -2346 2347 0
-2347 2366 0
-2156 -2347 2348 0
-2348 2367 0
-2159 -2348 2349 0
-2349 2368 0
-2160 -2349 2350 0
-2350 2369 0
-2163 -2350 2351 0
-2351 2370 0
-2164 -2351 0
2162 2352 0
-2352 2371 0
2165 -2352 2353 0
-2353 2372 0
2166 -2353 2354 0
-2354 2373 0
2169 -2354 2355 0
-2355 2374 0
2170 -2355 2356 0
-2356 2375 0
2173 -2356 2357 0
-2357 2376 0
2174 -2357 2358 0
-2358 2377 0
2177 -2358 2359 0
-2359 2378 0
2178 -2359 2360 0
-2360 2379 0
-2147 -2360 2361 0
-2361 2380 0
-2148 -2361 2362 0
-2362 2381 0
-2151 -2362 2363 0
-2363 2382 0
-2152 -2363 2364 0
-2364 2383 0
-2155 -2364 2365 0
-2365 2384 0
-2156 -2365 2366 0
-2366 2385 0
-2159 -2366 2367 0
-2367 2386 0
-2160 -2367 2368 0
-2368 2387 0
-2163 -2368 2369 0
-2369 2388 0
-2164 -2369 2370 0
-2370 2389 0
-2167 -2370 0
2165 2371 0
-2371 2390 0
2166 -2371 2372 0
-2372 2391 0
2169 -2372 2373 0
-2373 2392 0
2170 -2373 2374 0
-2374 2393 0
2173 -2374 2375 0
-2375 2394 0
2174 -2375 2376 0
-2376 2395 0
2177 -2376 2377 0
-2377 2396 0
2178 -2377 2378 0
-2378 2397 0
-2147 -2378 2379 0
-2379 2398 0
-2148 -2379 2380 0
-2380 2399 0
-2151 -2380 2381 0
-2381 2400 0
-2152 -2381 2382 0
-2382 2401 0
-2155 -2382 2383 0
-2383 2402 0
-2156 -2383 2384 0
-2384 2403 0
-2159 -2384 2385 0
-2385 2404 0
-2160 -2385 2386 0
-2386 2405 0
-2163 -2386 2387 0
-2387 2406 0
-2164 -2387 2388 0
-2388 2407 0
-2167 -2388 2389 0
-2389 2408 0
-2168 -2389 0
2166 2390 0
-2390 2409 0
2169 -2390 2391 0
-2391 2410 0
2170 -2391 2392 0
-2392 2411 0
2173 -2392 2393 0
-2393 2412 0
2174 -2393 2394 0
-2394 2413 0
2177 -2394 2395 0
-2395 2414 0
2178 -2395 2396 0
-2396 2415 0
-2147 -2396 2397 0
-2397 2416 0
-2148 -2397 2398 0
-2398 2417 0
-2151 -2398 2399 0
-2399 2418 0
-2152 -2399 2400 0
-2400 2419 0
-2155 -2400 2401 0
-2401 2420 0
-2156 -2401 2402 0
-2402 2421 0
-2159 -2402 2403 0
-2403 2422 0
-2160 -2403 2404 0
-2404 2423 0
-2163 -2404 2405 0
-2405 2424 0
-2164 -2405 2406 0
-2406 2425 0
-2167 -2406 2407 0
-2407 2426 0
-2168 -2407 2408 0
-2408 2427 0
-2171 -2408 0
2169 2409 0
-2409 2428 0
2170 -2409 2410 0
-2410 2429 0
2173 -2410 2411 0
-2411 2430 0
2174 -2411 2412 0
-2412 2431 0
2177 -2412 2413 0
-2413 2432 0
2178 -2413 2414 0
-2414 2433 0
-2147 -2414 2415 0
-2415 2434 0
-2148 -2415 2416 0
-2416 2435 0
-2151 -2416 2417 0
-2417 2436 0
-2152 -2417 2418 0
-2418 2437 0
-2155 -2418 2419 0
-2419 2438 0
-2156 -2419 2420 0
-2420 2439 0
-2159 -2420 2421 0
-2421 2440 0
-2160 -2421 2422 0
-2422 2441 0
-2163 -2422 2423 0
-2423 2442 0
-2164 -2423 2424 0
-2424 2443 0
-2167 -2424 2425 0
-2425 2444 0
-2168 -2425 2426 0
-2426 2445 0
-2171 -2426 2427 0
-2427 2446 0
-2172 -2427 0
2170 2428 0
-2428 2447 0
2173 -2428 2429 0
-2429 2448 0
2174 -2429 2430 0
-2430 2449 0
2177 -2430 2431 0
-2431 2450 0
2178 -2431 2432 0
-2432 2451 0
-2147 -2432 2433 0
-2433 2452 0
-2148 -2433 2434 0
-2434 2453 0
-2151 -2434 2435 0
-2435 2454 0
-2152 -2435 2436 0
-2436 2455 0
-2155 -2436 2437 0
-2437 2456 0
-2156 -2437 2438 0
-2438 2457 0
-2159 -2438 2439 0
-2439 2458 0
-2160 -2439 2440 0
-2440 2459 0
-2163 -2440 2441 0
-2441 2460 0
-2164 -2441 2442 0
-2442 2461 0
-2167 -2442 2443 0
-2443 2462 0
-2168 -2443 2444 0
-2444 2463 0
-2171 -2444 2445 0
-2445 2464 0
-2172 -2445 2446 0
-2446 2465 0
-2175 -2446 0
2173 2447 0
-2447 2466 0
2174 -2447 2448 0
-2448 2467 0
2177 -2448 2449 0
-2449 2468 0
2178 -2449 2450 0
-2450 2469 0
-2147 -2450 2451 0
-2451 2470 0
-2148 -2451 2452 0
-2452 2471 0
-2151 -2452 2453 0
-2453 2472 0
-2152 -2453 2454 0
-2454 2473 0
-2155 -2454 2455 0
-2455 2474 0
-2156 -2455 2456 0
-2456 2475 0
-2159 -2456 2457 0
-2457 2476 0
-2160 -2457 2458 0
-2458 2477 0
-2163 -2458 2459 0
-2459 2478 0
-2164 -2459 2460 0
-2460 2479 0
-2167 -2460 2461 0
-2461 2480 0
-2168 -2461 2462 0
-2462 2481 0
-2171 -2462 2463 0
-2463 2482 0
-2172 -2463 2464 0
-2464 2483 0
-2175 -2464 2465 0
-2465 2484 0
-2176 -2465 0
2174 2466 0
-2466 2485 0
2177 -2466 2467 0
-2467 2486 0
2178 -2467 2468 0
-2468 2487 0
-2147 -2468 2469 0
-2469 2488 0
-2148 -2469 2470 0
-2470 2489 0
-2151 -2470 2471 0
-2471 2490 0
-2152 -2471 2472 0
-2472 2491 0
-2155 -2472 2473 0
-2473 2492 0
-2156 -2473 2474 0
-2474 2493 0
-2159 -2474 2475 0
-2475 2494 0
-2160 -2475 2476 0
-2476 2495 0
-2163 -2476 2477 0
-2477 2496 0
-2164 -2477 2478 0
-2478 2497 0
-2167 -2478 2479 0
-2479 2498 0
-2168 -2479 2480 0
-2480 2499 0
-2171 -2480 2481 0
-2481 2500 0
-2172 -2481 2482 0
-2482 2501 0
-2175 -2482 2483 0
-2483 2502 0
-2176 -2483 2484 0
-2484 2503 0
-2179 -2484 0
2177 2485 0
2178 -2485 2486 0
-2147 -2486 2487 0
-2148 -2487 2488 0
-2151 -2488 2489 0
-2152 -2489 2490 0
-2155 -2490 2491 0
-2156 -2491 2492 0
-2159 -2492 2493 0
-2160 -2493 2494 0
-2163 -2494 2495 0
-2164 -2495 2496 0
-2167 -2496 2497 0
-2168 -2497 2498 0
-2171 -2498 2499 0
-2172 -2499 2500 0
-2175 -2500 2501 0
-2176 -2501 2502 0
-2179 -2502 2503 0
-2180 -2503 0
-2145 2504 0
-2504 2505 0
-2146 -2504 2506 0
-2506 2507 0
-2149 -2506 2508 0
-2508 2509 0
-2150 -2508 2510 0
-2510 2511 0
-2153 -2510 2512 0
-2512 2513 0
-2154 -2512 2514 0
-2514 2515 0
-2157 -2514 2516 0
-2516 2517 0
-2158 -2516 2518 0
-2518 2519 0
-2161 -2518 2520 0
-2520 2521 0
-2162 -2520 2522 0
-2522 2523 0
-2165 -2522 2524 0
-2524 2525 0
-2166 -2524 2526 0
-2526 2527 0
-2169 -2526 2528 0
-2528 2529 0
-2170 -2528 2530 0
-2530 2531 0
-2173 -2530 2532 0
-2532 2533 0
-2174 -2532 2534 0
-2534 2535 0
-2177 -2534 2536 0
-2536 2537 0
-2178 -2536 0
-2146 2505 0
-2505 2538 0
-2149 -2505 2507 0
-2507 2539 0
-2150 -2507 2509 0
-2509 2540 0
-2153 -2509 2511 0
-2511 2541 0
-2154 -2511 2513 0
-2513 2542 0
-2157 -2513 2515 0
-2515 2543 0
-2158 -2515 2517 0
-2517 2544 0
-2161 -2517 2519 0
-2519 2545 0
-2162 -2519 2521 0
-2521 2546 0
-2165 -2521 2523 0
-2523 2547 0
-2166 -2523 2525 0
-2525 2548 0
-2169 -2525 2527 0
-2527 2549 0
-2170 -2527 2529 0
-2529 2550 0
-2173 -2529 2531 0
-2531 2551 0
-2174 -2531 2533 0
-2533 2552 0
-2177 -2533 2535 0
-2535 2553 0
-2178 -2535 2537 0
-2537 2554 0
2147 -2537 0
-2149 2538 0
-2538 2555 0
-2150 -2538 2539 0
-2539 2556 0
-2153 -2539 2540 0
-2540 2557 0
-2154 -2540 2541 0
-2541 2558 0
-2157 -2541 2542 0
-2542 2559 0
-2158 -2542 2543 0
-2543 2560 0
-2161 -2543 2544 0
-2544 2561 0
-2162 -2544 2545 0
-2545 2562 0
-2165 -2545 2546 0
-2546 2563 0
-2166 -2546 2547 0
-2547 2564 0
-2169 -2547 2548 0
-2548 2565 0
-2170 -2548 2549 0
-2549 2566 0
-2173 -2549 2550 0
-2550 2567 0
-2174 -2550 2551 0
-2551 2568 0
-2177 -2551 2552 0
-2552 2569 0
-2178 -2552 2553 0
-2553 2570 0
2147 -2553 2554 0
-2554 2571 0
2148 -2554 0
-2150 2555 0
-2555 2572 0
-2153 -2555 2556 0
-2556 2573 0
-2154 -2556 2557 0
-2557 2574 0
-2157 -2557 2558 0
-2558 2575 0
-2158 -2558 2559 0
-2559 2576 0
-2161 -2559 2560 0
-2560 2577 0
-2162 -2560 2561 0
-2561 2578 0
-2165 -2561 2562 0
-2562 2579 0
-2166 -2562 2563 0
-2563 2580 0
-2169 -2563 2564 0
-2564 2581 0
-2170 -2564 2565 0
-2565 2582 0
-2173 -2565 2566 0
-2566 2583 0
-2174 -2566 2567 0
-2567 2584 0
-2177 -2567 2568 0
-2568 2585 0
-2178 -2568 2569 0
-2569 2586 0
2147 -2569 2570 0
-2570 2587 0
2148 -2570 2571 0
-2571 2588 0
2151 -2571 0
-2153 2572 0
-2572 2589 0
-2154 -2572 2573 0
-2573 2590 0
-2157 -2573 2574 0
-2574 2591 0
-2158 -2574 2575 0
-2575 2592 0
-2161 -2575 2576 0
-2576 2593 0
-2162 -2576 2577 0
-2577 2594 0
-2165 -2577 2578 0
-2578 2595 0
-2166 -2578 2579 0
-2579 2596 0
-2169 -2579 2580 0
-2580 2597 0
-2170 -2580 2581 0
-2581 2598 0
-2173 -2581 2582 0
-2582 2599 0
-2174 -2582 2583 0
-2583 2600 0
-2177 -2583 2584 0
-2584 2601 0
-2178 -2584 2585 0
-2585 2602 0
2147 -2585 2586 0
-2586 2603 0
2148 -2586 2587 0
-2587 2604 0
2151 -2587 2588 0
-2588 2605 0
2152 -2588 0
-2154 2589 0
-2589 2606 0
-2157 -2589 2590 0
-2590 2607 0
-2158 -2590 2591 0
-2591 2608 0
-2161 -2591 2592 0
-2592 2609 0
-2162 -2592 2593 0
-2593 2610 0
-2165 -2593 2594 0
-2594 2611 0
-2166 -2594 2595 0
-2595 2612 0
-2169 -2595 2596 0
-2596 2613 0
-2170 -2596 2597 0
-2597 2614 0
-2173 -2597 2598 0
-2598 2615 0
-2174 -2598 2599 0
-2599 2616 0
-2177 -2599 2600 0
-2600 2617 0
-2178 -2600 2601 0
-2601 2618 0
2147 -2601 2602 0
-2602 2619 0
2148 -2602 2603 0
-2603 2620 0
2151 -2603 2604 0
-2604 2621 0
2152 -2604 2605 0
-2605 2622 0
2155 -2605 0
-2157 2606 0
-2606 2623 0
-2158 -2606 2607 0
-2607 2624 0
-2161 -2607 2608 0
-2608 2625 0
-2162 -2608 2609 0
-2609 2626 0
-2165 -2609 2610 0
-2610 2627 0
-2166 -2610 2611 0
-2611 2628 0
-2169 -2611 2612 0
-2612 2629 0
-2170 -2612 2613 0
-2613 2630 0
-2173 -2613 2614 0
-2614 2631 0
-2174 -2614 2615 0
-2615 2632 0
-2177 -2615 2616 0
-2616 2633 0
-2178 -2616 2617 0
-2617 2634 0
2147 -2617 2618 0
-2618 2635 0
2148 -2618 2619 0
-2619 2636 0
2151 -2619 2620 0
-2620 2637 0
2152 -2620 2621 0
-2621 2638 0
2155 -2621 2622 0
-2622 2639 0
2156 -2622 0
-2158 2623 0
-2623 2640 0
-2161 -2623 2624 0
-2624 2641 0
-2162 -2624 2625 0
-2625 2642 0
-2165 -2625 2626 0
-2626 2643 0
-2166 -2626 2627 0
-2627 2644 0
-2169 -2627 2628 0
-2628 2645 0
-2170 -2628 2629 0
-2629 2646 0
-2173 -2629 2630 0
-2630 2647 0
-2174 -2630 2631 0
-2631 2648 0
-2177 -2631 2632 0
-2632 2649 0
-2178 -2632 2633 0
-2633 2650 0
2147 -2633 2634 0
-2634 2651 0
2148 -2634 2635 0
-2635 2652 0
2151 -2635 2636 0
-2636 2653 0
2152 -2636 2637 0
-2637 2654 0
2155 -2637 2638 0
-2638 2655 0
2156 -2638 2639 0
-2639 2656 0
2159 -2639 0
-2161 2640 0
-2640 2657 0
-2162 -2640 2641 0
-2641 2658 0
-2165 -2641 2642 0
-2642 2659 0
-2166 -2642 2643 0
-2643 2660 0
-2169 -2643 2644 0
-2644 2661 0
-2170 -2644 2645 0
-2645 2662 0
-2173 -2645 2646 0
-2646 2663 0
-2174 -2646 2647 0
-2647 2664 0
-2177 -2647 2648 0
-2648 2665 0
-2178 -2648 2649 0
-2649 2666 0
2147 -2649 2650 0
-2650 2667 0
2148 -2650 2651 0
-2651 2668 0
2151 -2651 2652 0
-2652 2669 0
2152 -2652 2653 0
-2653 2670 0
2155 -2653 2654 0
-2654 2671 0
2156 -2654 2655 0
-2655 2672 0
2159 -2655 2656 0
-2656 2673 0
2160 -2656 0
-2162 2657 0
-2657 2674 0
-2165 -2657 2658 0
-2658 2675 0
-2166 -2658 2659 0
-2659 2676 0
-2169 -2659 2660 0
-2660 2677 0
-2170 -2660 2661 0
-2661 2678 0
-2173 -2661 2662 0
-2662 2679 0
-2174 -2662 2663 0
-2663 2680 0
-2177 -2663 2664 0
-2664 2681 0
-2178 -2664 2665 0
-2665 2682 0
2147 -2665 2666 0
-2666 2683 0
2148 -2666 2667 0
-2667 2684 0
2151 -2667 2668 0
-2668 2685 0
2152 -2668 2669 0
-2669 2686 0
2155 -2669 2670 0
-2670 2687 0
2156 -2670 2671 0
-2671 2688 0
2159 -2671 2672 0
-2672 2689 0
2160 -2672 2673 0
-2673 2690 0
2163 -2673 0
-2165 2674 0
-2674 2691 0
-2166 -2674 2675 0
-2675 2692 0
-2169 -2675 2676 0
-2676 2693 0
-2170 -2676 2677 0
-2677 2694 0
-2173 -2677 2678 0
-2678 2695 0
-2174 -2678 2679 0
-2679 2696 0
-2177 -2679 2680 0
-2680 2697 0
-2178 -2680 2681 0
-2681 2698 0
2147 -2681 2682 0
-2682 2699 0
2148 -2682 2683 0
-2683 2700 0
2151 -2683 2684 0
-2684 2701 0
2152 -2684 2685 0
-2685 2702 0
2155 -2685 2686 0
-2686 2703 0
2156 -2686 2687 0
-2687 2704 0
2159 -2687 2688 0
-2688 2705 0
2160 -2688 2689 0
-2689 2706 0
2163 -2689 2690 0
-2690 2707 0
2164 -2690 0
-2166 2691 0
-2691 2708 0
-2169 -2691 2692 0
-2692 2709 0
-2170 -2692 2693 0
-2693 2710 0
-2173 -2693 2694 0
-2694 2711 0
-2174 -2694 2695 0
-2695 2712 0
-2177 -2695 2696 0
-2696 2713 0
-2178 -2696 2697 0
-2697 2714 0
2147 -2697 2698 0
-2698 2715 0
2148 -2698 2699 0
-2699 2716 0
2151 -2699 2700 0
-2700 2717 0
2152 -2700 2701 0
-2701 2718 0
2155 -2701 2702 0
-2702 2719 0
2156 -2702 2703 0
-2703 2720 0
2159 -2703 2704 0
-2704 2721 0
2160 -2704 2705 0
-2705 2722 0
2163 -2705 2706 0
-2706 2723 0
2164 -2706 2707 0
-2707 2724 0
2167 -2707 0
-2169 2708 0
-2708 2725 0
-2170 -2708 2709 0
-2709 2726 0
-2173 -2709 2710 0
-2710 2727 0
-2174 -2710 2711 0
-2711 2728 0
-2177 -2711 2712 0
-2712 2729 0
-2178 -2712 2713 0
-2713 2730 0
2147 -2713 2714 0
-2714 2731 0
2148 -2714 2715 0
-2715 2732 0
2151 -2715 2716 0
-2716 2733 0
2152 -2716 2717 0
-2717 2734 0
2155 -2717 2718 0
-2718 2735 0
2156 -2718 2719 0
-2719 2736 0
2159 -2719 2720 0
-2720 2737 0
2160 -2720 2721 0
-2721 2738 0
2163 -2721 2722 0
-2722 2739 0
2164 -2722 2723 0
-2723 2740 0
2167 -2723 2724 0
-2724 2741 0
2168 -2724 0
-2170 2725 0
-2725 2742 0
-2173 -2725 2726 0
-2726 2743 0
-2174 -2726 2727 0
-2727 2744 0
-2177 -2727 2728 0
-2728 2745 0
-2178 -2728 2729 0
-2729 2746 0
2147 -2729 2730 0
-2730 2747 0
2148 -2730 2731 0
-2731 2748 0
2151 -2731 2732 0
-2732 2749 0
2152 -2732 2733 0
-2733 2750 0
2155 -2733 2734 0
-2734 2751 0
2156 -2734 2735 0
-2735 2752 0
2159 -2735 2736 0
-2736 2753 0
2160 -2736 2737 0
-2737 2754 0
2163 -2737 2738 0
-2738 2755 0
2164 -2738 2739 0
-2739 2756 0
2167 -2739 2740 0
-2740 2757 0
2168 -2740 2741 0
-2741 2758 0
2171 -2741 0
-2173 2742 0
-2742 2759 0
-2174 -2742 2743 0
-2743 2760 0
-2177 -2743 2744 0
-2744 2761 0
-2178 -2744 2745 0
-2745 2762 0
2147 -2745 2746 0
-2746 2763 0
2148 -2746 2747 0
-2747 2764 0
2151 -2747 2748 0
-2748 2765 0
2152 -2748 2749 0
-2749 2766 0
2155 -2749 2750 0
-2750 2767 0
2156 -2750 2751 0
-2751 2768 0
2159 -2751 2752 0
-2752 2769 0
2160 -2752 2753 0
-2753 2770 0
2163 -2753 2754 0
-2754 2771 0
2164 -2754 2755 0
-2755 2772 0
2167 -2755 2756 0
-2756 2773 0
2168 -2756 2757 0
-2757 2774 0
2171 -2757 2758 0
-2758 2775 0
2172 -2758 0
-2174 2759 0
-2759 2776 0
-2177 -2759 2760 0
-2760 2777 0
-2178 -2760 2761 0
-2761 2778 0
2147 -2761 2762 0
-2762 2779 0
2148 -2762 2763 0
-2763 2780 0
2151 -2763 2764 0
-2764 2781 0
2152 -2764 2765 0
-2765 2782 0
2155 -2765 2766 0
-2766 2783 0
2156 -2766 2767 0
-2767 2784 0
2159 -2767 2768 0
-2768 2785 0
2160 -2768 2769 0
-2769 2786 0
2163 -2769 2770 0
-2770 2787 0
2164 -2770 2771 0
-2771 2788 0
2167 -2771 2772 0
-2772 2789 0
2168 -2772 2773 0
-2773 2790 0
2171 -2773 2774 0
-2774 2791 0
2172 -2774 2775 0
-2775 2792 0
2175 -2775 0
-2177 2776 0
-2776 2793 0
-2178 -2776 2777 0
-2777 2794 0
2147 -2777 2778 0
-2778 2795 0
2148 -2778 2779 0
-2779 2796 0
2151 -2779 2780 0
-2780 2797 0
2152 -2780 2781 0
-2781 2798 0
2155 -2781 2782 0
-2782 2799 0
2156 -2782 2783 0
-2783 2800 0
2159 -2783 2784 0
-2784 2801 0
2160 -2784 2785 0
-2785 2802 0
2163 -2785 2786 0
-2786 2803 0
2164 -2786 2787 0
-2787 2804 0
2167 -2787 2788 0
-2788 2805 0
2168 -2788 2789 0
-2789 2806 0
2171 -2789 2790 0
-2790 2807 0
2172 -2790 2791 0
-2791 2808 0
2175 -2791 2792 0
-2792 2809 0
2176 -2792 0
-2178 2793 0
-2793 2810 0
2147 -2793 2794 0
-2794 2811 0
2148 -2794 2795 0
-2795 2812 0
2151 -2795 2796 0
-2796 2813 0
2152 -2796 2797 0
-2797 2814 0
2155 -2797 2798 0
-2798 2815 0
2156 -2798 2799 0
-2799 2816 0
2159 -2799 2800 0
-2800 2817 0
2160 -2800 2801 0
-2801 2818 0
2163 -2801 2802 0
-2802 2819 0
2164 -2802 2803 0
-2803 2820 0
2167 -2803 2804 0
-2804 2821 0
2168 -2804 2805 0
-2805 2822 0
2171 -2805 2806 0
-2806 2823 0
2172 -2806 2807 0
-2807 2824 0
2175 -2807 2808 0
-2808 2825 0
2176 -2808 2809 0
-2809 2826 0
2179 -2809 0
2147 2810 0
2148 -2810 2811 0
2151 -2811 2812 0
2152 -2812 2813 0
2155 -2813 2814 0
2156 -2814 2815 0
2159 -2815 2816 0
2160 -2816 2817 0
2163 -2817 2818 0
2164 -2818 2819 0
2167 -2819 2820 0
2168 -2820 2821 0
2171 -2821 2822 0
2172 -2822 2823 0
2175 -2823 2824 0
2176 -2824 2825 0
2179 -2825 2826 0
2180 -2826 0
-2827 1 0
-2827 8 0
2827 -1 -8 0
-2828 10 0
-2828 17 0
2828 -10 -17 0
-2829 1 0
-2829 17 0
2829 -1 -17 0
-2830 10 0
-2830 8 0
2830 -10 -8 0
-2831 2 0
-2831 9 0
2831 -2 -9 0
-2832 11 0
-2832 18 0
2832 -11 -18 0
-2833 2 0
-2833 18 0
2833 -2 -18 0
-2834 11 0
-2834 9 0
2834 -11 -9 0
-2835 3 0
-2835 7 0
2835 -3 -7 0
-2836 12 0
-2836 16 0
2836 -12 -16 0
-2837 3 0
-2837 16 0
2837 -3 -16 0
-2838 12 0
-2838 7 0
2838 -12 -7 0
-2839 4 0
-2839 2 0
2839 -4 -2 0
-2840 13 0
-2840 11 0
2840 -13 -11 0
-2841 4 0
-2841 11 0
2841 -4 -11 0
-2842 13 0
-2842 2 0
2842 -13 -2 0
-2843 5 0
-2843 3 0
2843 -5 -3 0
-2844 14 0
-2844 12 0
2844 -14 -12 0
-2845 5 0
-2845 12 0
2845 -5 -12 0
-2846 14 0
-2846 3 0
2846 -14 -3 0
-2847 6 0
-2847 1 0
2847 -6 -1 0
-2848 15 0
-2848 10 0
2848 -15 -10 0
-2849 6 0
-2849 10 0
2849 -6 -10 0
-2850 15 0
-2850 1 0
2850 -15 -1 0
-2851 7 0
-2851 5 0
2851 -7 -5 0
-2852 16 0
-2852 14 0
2852 -16 -14 0
-2853 7 0
-2853 14 0
2853 -7 -14 0
-2854 16 0
-2854 5 0
2854 -16 -5 0
-2855 8 0
-2855 6 0
2855 -8 -6 0
-2856 17 0
-2856 15 0
2856 -17 -15 0
-2857 8 0
-2857 15 0
2857 -8 -15 0
-2858 17 0
-2858 6 0
2858 -17 -6 0
-2859 9 0
-2859 4 0
2859 -9 -4 0
-2860 18 0
-2860 13 0
2860 -18 -13 0
-2861 9 0
-2861 13 0
2861 -9 -13 0
-2862 18 0
-2862 4 0
2862 -18 -4 0
2827 2863 0
-2863 2864 0
2828 -2863 2865 0
-2865 2866 0
2831 -2865 2867 0
-2867 2868 0
2832 -2867 2869 0
-2869 2870 0
2835 -2869 2871 0
-2871 2872 0
2836 -2871 2873 0
-2873 2874 0
2839 -2873 2875 0
-2875 2876 0
2840 -2875 2877 0
-2877 2878 0
2843 -2877 2879 0
-2879 2880 0
2844 -2879 2881 0
-2881 2882 0
2847 -2881 2883 0
-2883 2884 0
2848 -2883 2885 0
-2885 2886 0
2851 -2885 2887 0
-2887 2888 0
2852 -2887 2889 0
-2889 2890 0
2855 -2889 2891 0
-2891 2892 0
2856 -2891 2893 0
-2893 2894 0
2859 -2893 2895 0
-2895 2896 0
2860 -2895 2897 0
-2897 2898 0
-2829 -2897 2899 0
-2899 2900 0
-2830 -2899 0
2828 2864 0
-2864 2901 0
2831 -2864 2866 0
-2866 2902 0
2832 -2866 2868 0
-2868 2903 0
2835 -2868 2870 0
-2870 2904 0
2836 -2870 2872 0
-2872 2905 0
2839 -2872 2874 0
-2874 2906 0
2840 -2874 2876 0
-2876 2907 0
2843 -2876 2878 0
-2878 2908 0
2844 -2878 2880 0
-2880 2909 0
2847 -2880 2882 0
-2882 2910 0
2848 -2882 2884 0
-2884 2911 0
2851 -2884 2886 0
-2886 2912 0
2852 -2886 2888 0
-2888 2913 0
2855 -2888 2890 0
-2890 2914 0
2856 -2890 2892 0
-2892 2915 0
2859 -2892 2894 0
-2894 2916 0
2860 -2894 2896 0
-2896 2917 0
-2829 -2896 2898 0
-2898 2918 0
-2830 -2898 2900 0
-2900 2919 0
-2833 -2900 0
2831 2901 0
-2901 2920 0
2832 -2901 2902 0
-2902 2921 0
2835 -2902 2903 0
-2903 2922 0
2836 -2903 2904 0
-2904 2923 0
2839 -2904 2905 0
-2905 2924 0
2840 -2905 2906 0
-2906 2925 0
2843 -2906 2907 0
-2907 2926 0
2844 -2907 2908 0
-2908 2927 0
2847 -2908 2909 0
-2909 2928 0
2848 -2909 2910 0
-2910 2929 0
2851 -2910 2911 0
-2911 2930 0
2852 -2911 2912 0
-2912 2931 0
2855 -2912 2913 0
-2913 2932 0
2856 -2913 2914 0
-2914 2933 0
2859 -2914 2915 0
-2915 2934 0
2860 -2915 2916 0
-2916 2935 0
-2829 -2916 2917 0
-2917 2936 0
-2830 -2917 2918 0
-2918 2937 0
-2833 -2918 2919 0
-2919 2938 0
-2834 -2919 0
2832 2920 0
-2920 2939 0
2835 -2920 2921 0
-2921 2940 0
2836 -2921 2922 0
-2922 2941 0
2839 -2922 2923 0
-2923 2942 0
2840 -2923 2924 0
-2924 2943 0
2843 -2924 2925 0
-2925 2944 0
2844 -2925 2926 0
-2926 2945 0
2847 -2926 2927 0
-2927 2946 0
2848 -2927 2928 0
-2928 2947 0
2851 -2928 2929 0
-2929 2948 0
2852 -2929 2930 0
-2930 2949 0
2855 -2930 2931 0
-2931 2950 0
2856 -2931 2932 0
-2932 2951 0
2859 -2932 2933 0
-2933 2952 0
2860 -2933 2934 0
-2934 2953 0
-2829 -2934 2935 0
-2935 2954 0
-2830 -2935 2936 0
-2936 2955 0
-2833 -2936 2937 0
-2937 2956 0
-2834 -2937 2938 0
-2938 2957 0
-2837 -2938 0
2835 2939 0
-2939 2958 0
2836 -2939 2940 0
-2940 2959 0
2839 -2940 2941 0
-2941 2960 0
2840 -2941 2942 0
-2942 2961 0
2843 -2942 2943 0
-2943 2962 0
2844 -2943 2944 0
-2944 2963 0
2847 -2944 2945 0
-2945 2964 0
2848 -2945 2946 0
-2946 2965 0
2851 -2946 2947 0
-2947 2966 0
2852 -2947 2948 0
-2948 2967 0
2855 -2948 2949 0
-2949 2968 0
2856 -2949 2950 0
-2950 2969 0
2859 -2950 2951 0
-2951 2970 0
2860 -2951 2952 0
-2952 2971 0
-2829 -2952 2953 0
-2953 2972 0
-2830 -2953 2954 0
-2954 2973 0
-2833 -2954 2955 0
-2955 2974 0
-2834 -2955 2956 0
-2956 2975 0
-2837 -2956 2957 0
-2957 2976 0
-2838 -2957 0
2836 2958 0
-2958 2977 0
2839 -2958 2959 0
-2959 2978 0
2840 -2959 2960 0
-2960 2979 0
2843 -2960 2961 0
-2961 2980 0
2844 -2961 2962 0
-2962 2981 0
2847 -2962 2963 0
-2963 2982 0
2848 -2963 2964 0
-2964 2983 0
2851 -2964 2965 0
-2965 2984 0
2852 -2965 2966 0
-2966 2985 0
2855 -2966 2967 0
-2967 2986 0
2856 -2967 2968 0
-2968 2987 0
2859 -2968 2969 0
-2969 2988 0
2860 -2969 2970 0
-2970 2989 0
-2829 -2970 2971 0
-2971 2990 0
-2830 -2971 2972 0
-2972 2991 0
-2833 -2972 2973 0
-2973 2992 0
-2834 -2973 2974 0
-2974 2993 0
-2837 -2974 2975 0
-2975 2994 0
-2838 -2975 2976 0
-2976 2995 0
-2841 -2976 0
2839 2977 0
-2977 2996 0
2840 -2977 2978 0
-2978 2997 0
2843 -2978 2979 0
-2979 2998 0
2844 -2979 2980 0
-2980 2999 0
2847 -2980 2981 0
-2981 3000 0
2848 -2981 2982 0
-2982 3001 0
2851 -2982 2983 0
-2983 3002 0
2852 -2983 2984 0
-2984 3003 0
2855 -2984 2985 0
-2985 3004 0
2856 -2985 2986 0
-2986 3005 0
2859 -2986 2987 0
-2987 3006 0
2860 -2987 2988 0
-2988 3007 0
-2829 -2988 2989 0
-2989 3008 0
-2830 -2989 2990 0
-2990 3009 0
-2833 -2990 2991 0
-2991 3010 0
-2834 -2991 2992 0
-2992 3011 0
-2837 -2992 2993 0
-2993 3012 0
-2838 -2993 2994 0
-2994 3013 0
-2841 -2994 2995 0
-2995 3014 0
-2842 -2995 0
2840 2996 0
-2996 3015 0
2843 -2996 2997 0
-2997 3016 0
2844 -2997 2998 0
-2998 3017 0
2847 -2998 2999 0
-2999 3018 0
2848 -2999 3000 0
-3000 3019 0
2851 -3000 3001 0
-3001 3020 0
2852 -3001 3002 0
-3002 3021 0
2855 -3002 3003 0
-3003 3022 0
2856 -3003 3004 0
-3004 3023 0
2859 -3004 3005 0
-3005 3024 0
2860 -3005 3006 0
-3006 3025 0
-2829 -3006 3007 0
-3007 3026 0
-2830 -3007 3008 0
-3008 3027 0
-2833 -3008 3009 0
-3009 3028 0
-2834 -3009 3010 0
-3010 3029 0
-2837 -3010 3011 0
-3011 3030 0
-2838 -3011 3012 0
-3012 3031 0
-2841 -3012 3013 0
-3013 3032 0
-2842 -3013 3014 0
-3014 3033 0
-2845 -3014 0
2843 3015 0
-3015 3034 0
2844 -3015 3016 0
-3016 3035 0
2847 -3016 3017 0
-3017 3036 0
2848 -3017 3018 0
-3018 3037 0
2851 -3018 3019 0
-3019 3038 0
2852 -3019 3020 0
-3020 3039 0
2855 -3020 3021 0
-3021 3040 0
2856 -3021 3022 0
-3022 3041 0
2859 -3022 3023 0
-3023 3042 0
2860 -3023 3024 0
-3024 3043 0
-2829 -3024 3025 0
-3025 3044 0
-2830 -3025 3026 0
-3026 3045 0
-2833 -3026 3027 0
-3027 3046 0
-2834 -3027 3028 0
-3028 3047 0
-2837 -3028 3029 0
-3029 3048 0
-2838 -3029 3030 0
-3030 3049 0
-2841 -3030 3031 0
-3031 3050 0
-2842 -3031 3032 0
-3032 3051 0
-2845 -3032 3033 0
-3033 3052 0
-2846 -3033 0
2844 3034 0
-3034 3053 0
2847 -3034 3035 0
-3035 3054 0
2848 -3035 3036 0
-3036 3055 0
2851 -3036 3037 0
-3037 3056 0
2852 -3037 3038 0
-3038 3057 0
2855 -3038 3039 0
-3039 3058 0
2856 -3039 3040 0
-3040 3059 0
2859 -3040 3041 0
-3041 3060 0
2860 -3041 3042 0
-3042 3061 0
-2829 -3042 3043 0
-3043 3062 0
-2830 -3043 3044 0
-3044 3063 0
-2833 -3044 3045 0
-3045 3064 0
-2834 -3045 3046 0
-3046 3065 0
-2837 -3046 3047 0
-3047 3066 0
-2838 -3047 3048 0
-3048 3067 0
-2841 -3048 3049 0
-3049 3068 0
-2842 -3049 3050 0
-3050 3069 0
-2845 -3050 3051 0
-3051 3070 0
-2846 -3051 3052 0
-3052 3071 0
-2849 -3052 0
2847 3053 0
-3053 3072 0
2848 -3053 3054 0
-3054 3073 0
2851 -3054 3055 0
-3055 3074 0
2852 -3055 3056 0
-3056 3075 0
2855 -3056 3057 0
-3057 3076 0
2856 -3057 3058 0
-3058 3077 0
2859 -3058 3059 0
-3059 3078 0
2860 -3059 3060 0
-3060 3079 0
-2829 -3060 3061 0
-3061 3080 0
-2830 -3061 3062 0
-3062 3081 0
-2833 -3062 3063 0
-3063 3082 0
-2834 -3063 3064 0
-3064 3083 0
-2837 -3064 3065 0
-3065 3084 0
-2838 -3065 3066 0
-3066 3085 0
-2841 -3066 3067 0
-3067 3086 0
-2842 -3067 3068 0
-3068 3087 0
-2845 -3068 3069 0
-3069 3088 0
-2846 -3069 3070 0
-3070 3089 0
-2849 -3070 3071 0
-3071 3090 0
-2850 -3071 0
2848 3072 0
-3072 3091 0
2851 -3072 3073 0
-3073 3092 0
2852 -3073 3074 0
-3074 3093 0
2855 -3074 3075 0
-3075 3094 0
2856 -3075 3076 0
-3076 3095 0
2859 -3076 3077 0
-3077 3096 0
2860 -3077 3078 0
-3078 3097 0
-2829 -3078 3079 0
-3079 3098 0
-2830 -3079 3080 0
-3080 3099 0
-2833 -3080 3081 0
-3081 3100 0
-2834 -3081 3082 0
-3082 3101 0
-2837 -3082 3083 0
-3083 3102 0
-2838 -3083 3084 0
-3084 3103 0
-2841 -3084 3085 0
-3085 3104 0
-2842 -3085 3086 0
-3086 3105 0
-2845 -3086 3087 0
-3087 3106 0
-2846 -3087 3088 0
-3088 3107 0
-2849 -3088 3089 0
-3089 3108 0
-2850 -3089 3090 0
-3090 3109 0
-2853 -3090 0
2851 3091 0
-3091 3110 0
2852 -3091 3092 0
-3092 3111 0
2855 -3092 3093 0
-3093 3112 0
2856 -3093 3094 0
-3094 3113 0
2859 -3094 3095 0
-3095 3114 0
2860 -3095 3096 0
-3096 3115 0
-2829 -3096 3097 0
-3097 3116 0
-2830 -3097 3098 0
-3098 3117 0
-2833 -3098 3099 0
-3099 3118 0
-2834 -3099 3100 0
-3100 3119 0
-2837 -3100 3101 0
-3101 3120 0
-2838 -3101 3102 0
-3102 3121 0
-2841 -3102 3103 0
-3103 3122 0
-2842 -3103 3104 0
-3104 3123 0
-2845 -3104 3105 0
-3105 3124 0
-2846 -3105 3106 0
-3106 3125 0
-2849 -3106 3107 0
-3107 3126 0
-2850 -3107 3108 0
-3108 3127 0
-2853 -3108 3109 0
-3109 3128 0
-2854 -3109 0
2852 3110 0
-3110 3129 0
2855 -3110 3111 0
-3111 3130 0
2856 -3111 3112 0
-3112 3131 0
2859 -3112 3113 0
-3113 3132 0
2860 -3113 3114 0
-3114 3133 0
-2829 -3114 3115 0
-3115 3134 0
-2830 -3115 3116 0
-3116 3135 0
-2833 -3116 3117 0
-3117 3136 0
-2834 -3117 3118 0
-3118 3137 0
-2837 -3118 3119 0
-3119 3138 0
-2838 -3119 3120 0
-3120 3139 0
-2841 -3120 3121 0
-3121 3140 0
-2842 -3121 3122 0
-3122 3141 0
-2845 -3122 3123 0
-3123 3142 0
-2846 -3123 3124 0
-3124 3143 0
-2849 -3124 3125 0
-3125 3144 0
-2850 -3125 3126 0
-3126 3145 0
-2853 -3126 3127 0
-3127 3146 0
-2854 -3127 3128 0
-3128 3147 0
-2857 -3128 0
2855 3129 0
-3129 3148 0
2856 -3129 3130 0
-3130 3149 0
2859 -3130 3131 0
-3131 3150 0
2860 -3131 3132 0
-3132 3151 0
-2829 -3132 3133 0
-3133 3152 0
-2830 -3133 3134 0
-3134 3153 0
-2833 -3134 3135 0
-3135 3154 0
-2834 -3135 3136 0
-3136 3155 0
-2837 -3136 3137 0
-3137 3156 0
-2838 -3137 3138 0
-3138 3157 0
-2841 -3138 3139 0
-3139 3158 0
-2842 -3139 3140 0
-3140 3159 0
-2845 -3140 3141 0
-3141 3160 0
-2846 -3141 3142 0
-3142 3161 0
-2849 -3142 3143 0
-3143 3162 0
-2850 -3143 3144 0
-3144 3163 0
-2853 -3144 3145 0
-3145 3164 0
-2854 -3145 3146 0
-3146 3165 0
-2857 -3146 3147 0
-3147 3166 0
-2858 -3147 0
2856 3148 0
-3148 3167 0
2859 -3148 3149 0
-3149 3168 0
2860 -3149 3150 0
-3150 3169 0
-2829 -3150 3151 0
-3151 3170 0
-2830 -3151 3152 0
-3152 3171 0
-2833 -3152 3153 0
-3153 3172 0
-2834 -3153 3154 0
-3154 3173 0
-2837 -3154 3155 0
-3155 3174 0
-2838 -3155 3156 0
-3156 3175 0
-2841 -3156 3157 0
-3157 3176 0
-2842 -3157 3158 0
-3158 3177 0
-2845 -3158 3159 0
-3159 3178 0
-2846 -3159 3160 0
-3160 3179 0
-2849 -3160 3161 0
-3161 3180 0
-2850 -3161 3162 0
-3162 3181 0
-2853 -3162 3163 0
-3163 3182 0
-2854 -3163 3164 0
-3164 3183 0
-2857 -3164 3165 0
-3165 3184 0
-2858 -3165 3166 0
-3166 3185 0
-2861 -3166 0
2859 3167 0
2860 -3167 3168 0
-2829 -3168 3169 0
-2830 -3169 3170 0
-2833 -3170 3171 0
-2834 -3171 3172 0
-2837 -3172 3173 0
-2838 -3173 3174 0
-2841 -3174 3175 0
-2842 -3175 3176 0
-2845 -3176 3177 0
-2846 -3177 3178 0
-2849 -3178 3179 0
-2850 -3179 3180 0
-2853 -3180 3181 0
-2854 -3181 3182 0
-2857 -3182 3183 0
-2858 -3183 3184 0
-2861 -3184 3185 0
-2862 -3185 0
-2827 3186 0
-3186 3187 0
-2828 -3186 3188 0
-3188 3189 0
-2831 -3188 3190 0
-3190 3191 0
-2832 -3190 3192 0
-3192 3193 0
-2835 -3192 3194 0
-3194 3195 0
-2836 -3194 3196 0
-3196 3197 0
-2839 -3196 3198 0
-3198 3199 0
-2840 -3198 3200 0
-3200 3201 0
-2843 -3200 3202 0
-3202 3203 0
-2844 -3202 3204 0
-3204 3205 0
-2847 -3204 3206 0
-3206 3207 0
-2848 -3206 3208 0
-3208 3209 0
-2851 -3208 3210 0
-3210 3211 0
-2852 -3210 3212 0
-3212 3213 0
-2855 -3212 3214 0
-3214 3215 0
-2856 -3214 3216 0
-3216 3217 0
-2859 -3216 3218 0
-3218 3219 0
-2860 -3218 0
-2828 3187 0
-3187 3220 0
-2831 -3187 3189 0
-3189 3221 0
-2832 -3189 3191 0
-3191 3222 0
-2835 -3191 3193 0
-3193 3223 0
-2836 -3193 3195 0
-3195 3224 0
-2839 -3195 3197 0
-3197 3225 0
-2840 -3197 3199 0
-3199 3226 0
-2843 -3199 3201 0
-3201 3227 0
-2844 -3201 3203 0
-3203 3228 0
-2847 -3203 3205 0
-3205 3229 0
-2848 -3205 3207 0
-3207 3230 0
-2851 -3207 3209 0
-3209 3231 0
-2852 -3209 3211 0
-3211 3232 0
-2855 -3211 3213 0
-3213 3233 0
-2856 -3213 3215 0
-3215 3234 0
-2859 -3215 3217 0
-3217 3235 0
-2860 -3217 3219 0
-3219 3236 0
2829 -3219 0
-2831 3220 0
-3220 3237 0
-2832 -3220 3221 0
-3221 3238 0
-2835 -3221 3222 0
-3222 3239 0
-2836 -3222 3223 0
-3223 3240 0
-2839 -3223 3224 0
-3224 3241 0
-2840 -3224 3225 0
-3225 3242 0
-2843 -3225 3226 0
-3226 3243 0
-2844 -3226 3227 0
-3227 3244 0
-2847 -3227 3228 0
-3228 3245 0
-2848 -3228 3229 0
-3229 3246 0
-2851 -3229 3230 0
-3230 3247 0
-2852 -3230 3231 0
-3231 3248 0
-2855 -3231 3232 0
-3232 3249 0
-2856 -3232 3233 0
-3233 3250 0
-2859 -3233 3234 0
-3234 3251 0
-2860 -3234 3235 0
-3235 3252 0
2829 -3235 3236 0
-3236 3253 0
2830 -3236 0
-2832 3237 0
-3237 3254 0
-2835 -3237 3238 0
-3238 3255 0
-2836 -3238 3239 0
-3239 3256 0
-2839 -3239 3240 0
-3240 3257 0
-2840 -3240 3241 0
-3241 3258 0
-2843 -3241 3242 0
-3242 3259 0
-2844 -3242 3243 0
-3243 3260 0
-2847 -3243 3244 0
-3244 3261 0
-2848 -3244 3245 0
-3245 3262 0
-2851 -3245 3246 0
-3246 3263 0
-2852 -3246 3247 0
-3247 3264 0
-2855 -3247 3248 0
-3248 3265 0
-2856 -3248 3249 0
-3249 3266 0
-2859 -3249 3250 0
-3250 3267 0
-2860 -3250 3251 0
-3251 3268 0
2829 -3251 3252 0
-3252 3269 0
2830 -3252 3253 0
-3253 3270 0
2833 -3253 0
-2835 3254 0
-3254 3271 0
-2836 -3254 3255 0
-3255 3272 0
-2839 -3255 3256 0
-3256 3273 0
-2840 -3256 3257 0
-3257 3274 0
-2843 -3257 3258 0
-3258 3275 0
-2844 -3258 3259 0
-3259 3276 0
-2847 -3259 3260 0
-3260 3277 0
-2848 -3260 3261 0
-3261 3278 0
-2851 -3261 3262 0
-3262 3279 0
-2852 -3262 3263 0
-3263 3280 0
-2855 -3263 3264 0
-3264 3281 0
-2856 -3264 3265 0
-3265 3282 0
-2859 -3265 3266 0
-3266 3283 0
-2860 -3266 3267 0
-3267 3284 0
2829 -3267 3268 0
-3268 3285 0
2830 -3268 3269 0
-3269 3286 0
2833 -3269 3270 0
-3270 3287 0
2834 -3270 0
-2836 3271 0
-3271 3288 0
-2839 -3271 3272 0
-3272 3289 0
-2840 -3272 3273 0
-3273 3290 0
-2843 -3273 3274 0
-3274 3291 0
-2844 -3274 3275 0
-3275 3292 0
-2847 -3275 3276 0
-3276 3293 0
-2848 -3276 3277 0
-3277 3294 0
-2851 -3277 3278 0
-3278 3295 0
-2852 -3278 3279 0
-3279 3296 0
-2855 -3279 3280 0
-3280 3297 0
-2856 -3280 3281 0
-3281 3298 0
-2859 -3281 3282 0
-3282 3299 0
-2860 -3282 3283 0
-3283 3300 0
2829 -3283 3284 0
-3284 3301 0
2830 -3284 3285 0
-3285 3302 0
2833 -3285 3286 0
-3286 3303 0
2834 -3286 3287 0
-3287 3304 0
2837 -3287 0
-2839 3288 0
-3288 3305 0
-2840 -3288 3289 0
-3289 3306 0
-2843 -3289 3290 0
-3290 3307 0
-2844 -3290 3291 0
-3291 3308 0
-2847 -3291 3292 0
-3292 3309 0
-2848 -3292 3293 0
-3293 3310 0
-2851 -3293 3294 0
-3294 3311 0
-2852 -3294 3295 0
-3295 3312 0
-2855 -3295 3296 0
-3296 3313 0
-2856 -3296 3297 0
-3297 3314 0
-2859 -3297 3298 0
-3298 3315 0
-2860 -3298 3299 0
-3299 3316 0
2829 -3299 3300 0
-3300 3317 0
2830 -3300 3301 0
-3301 3318 0
2833 -3301 3302 0
-3302 3319 0
2834 -3302 3303 0
-3303 3320 0
2837 -3303 3304 0
-3304 3321 0
2838 -3304 0
-2840 3305 0
-3305 3322 0
-2843 -3305 3306 0
-3306 3323 0
-2844 -3306 3307 0
-3307 3324 0
-2847 -3307 3308 0
-3308 3325 0
-2848 -3308 3309 0
-3309 3326 0
-2851 -3309 3310 0
-3310 3327 0
-2852 -3310 3311 0
-3311 3328 0
-2855 -3311 3312 0
-3312 3329 0
-2856 -3312 3313 0
-3313 3330 0
-2859 -3313 3314 0
-3314 3331 0
-2860 -3314 3315 0
-3315 3332 0
2829 -3315 3316 0
-3316 3333 0
2830 -3316 3317 0
-3317 3334 0
2833 -3317 3318 0
-3318 3335 0
2834 -3318 3319 0
-3319 3336 0
2837 -3319 3320 0
-3320 3337 0
2838 -3320 3321 0
-3321 3338 0
2841 -3321 0
-2843 3322 0
-3322 3339 0
-2844 -3322 3323 0
-3323 3340 0
-2847 -3323 3324 0
-3324 3341 0
-2848 -3324 3325 0
-3325 3342 0
-2851 -3325 3326 0
-3326 3343 0
-2852 -3326 3327 0
-3327 3344 0
-2855 -3327 3328 0
-3328 3345 0
-2856 -3328 3329 0
-3329 3346 0
-2859 -3329 3330 0
-3330 3347 0
-2860 -3330 3331 0
-3331 3348 0
2829 -3331 3332 0
-3332 3349 0
2830 -3332 3333 0
-3333 3350 0
2833 -3333 3334 0
-3334 3351 0
2834 -3334 3335 0
-3335 3352 0
2837 -3335 3336 0
-3336 3353 0
2838 -3336 3337 0
-3337 3354 0
2841 -3337 3338 0
-3338 3355 0
2842 -3338 0
-2844 3339 0
-3339 3356 0
-2847 -3339 3340 0
-3340 3357 0
-2848 -3340 3341 0
-3341 3358 0
-2851 -3341 3342 0
-3342 3359 0
-2852 -3342 3343 0
-3343 3360 0
-2855 -3343 3344 0
-3344 3361 0
-2856 -3344 3345 0
-3345 3362 0
-2859 -3345 3346 0
-3346 3363 0
-2860 -3346 3347 0
-3347 3364 0
2829 -3347 3348 0
-3348 3365 0
2830 -3348 3349 0
-3349 3366 0
2833 -3349 3350 0
-3350 3367 0
2834 -3350 3351 0
-3351 3368 0
2837 -3351 3352 0
-3352 3369 0
2838 -3352 3353 0
-3353 3370 0
2841 -3353 3354 0
-3354 3371 0
2842 -3354 3355 0
-3355 3372 0
2845 -3355 0
-2847 3356 0
-3356 3373 0
-2848 -3356 3357 0
-3357 3374 0
-2851 -3357 3358 0
-3358 3375 0
-2852 -3358 3359 0
-3359 3376 0
-2855 -3359 3360 0
-3360 3377 0
-2856 -3360 3361 0
-3361 3378 0
-2859 -3361 3362 0
-3362 3379 0
-2860 -3362 3363 0
-3363 3380 0
2829 -3363 3364 0
-3364 3381 0
2830 -3364 3365 0
-3365 3382 0
2833 -3365 3366 0
-3366 3383 0
2834 -3366 3367 0
-3367 3384 0
2837 -3367 3368 0
-3368 3385 0
2838 -3368 3369 0
-3369 3386 0
2841 -3369 3370 0
-3370 3387 0
2842 -3370 3371 0
-3371 3388 0
2845 -3371 3372 0
-3372 3389 0
2846 -3372 0
-2848 3373 0
-3373 3390 0
-2851 -3373 3374 0
-3374 3391 0
-2852 -3374 3375 0
-3375 3392 0
-2855 -3375 3376 0
-3376 3393 0
-2856 -3376 3377 0
-3377 3394 0
-2859 -3377 3378 0
-3378 3395 0
-2860 -3378 3379 0
-3379 3396 0
2829 -3379 3380 0
-3380 3397 0
2830 -3380 3381 0
-3381 3398 0
2833 -3381 3382 0
-3382 3399 0
2834 -3382 3383 0
-3383 3400 0
2837 -3383 3384 0
-3384 3401 0
2838 -3384 3385 0
-3385 3402 0
2841 -3385 3386 0
-3386 3403 0
2842 -3386 3387 0
-3387 3404 0
2845 -3387 3388 0
-3388 3405 0
2846 -3388 3389 0
-3389 3406 0
2849 -3389 0
-2851 3390 0
-3390 3407 0
-2852 -3390 3391 0
-3391 3408 0
-2855 -3391 3392 0
-3392 3409 0
-2856 -3392 3393 0
-3393 3410 0
-2859 -3393 3394 0
-3394 3411 0
-2860 -3394 3395 0
-3395 3412 0
2829 -3395 3396 0
-3396 3413 0
2830 -3396 3397 0
-3397 3414 0
2833 -3397 3398 0
-3398 3415 0
2834 -3398 3399 0
-3399 3416 0
2837 -3399 3400 0
-3400 3417 0
2838 -3400 3401 0
-3401 3418 0
2841 -3401 3402 0
-3402 3419 0
2842 -3402 3403 0
-3403 3420 0
2845 -3403 3404 0
-3404 3421 0
2846 -3404 3405 0
-3405 3422 0
2849 -3405 3406 0
-3406 3423 0
2850 -3406 0
-2852 3407 0
-3407 3424 0
-2855 -3407 3408 0
-3408 3425 0
-2856 -3408 3409 0
-3409 3426 0
-2859 -3409 3410 0
-3410 3427 0
-2860 -3410 3411 0
-3411 3428 0
2829 -3411 3412 0
-3412 3429 0
2830 -3412 3413 0
-3413 3430 0
2833 -3413 3414 0
-3414 3431 0
2834 -3414 3415 0
-3415 3432 0
2837 -3415 3416 0
-3416 3433 0
2838 -3416 3417 0
-3417 3434 0
2841 -3417 3418 0
-3418 3435 0
2842 -3418 3419 0
-3419 3436 0
2845 -3419 3420 0
-3420 3437 0
2846 -3420 3421 0
-3421 3438 0
2849 -3421 3422 0
-3422 3439 0
2850 -3422 3423 0
-3423 3440 0
2853 -3423 0
-2855 3424 0
-3424 3441 0
-2856 -3424 3425 0
-3425 3442 0
-2859 -3425 3426 0
-3426 3443 0
-2860 -3426 3427 0
-3427 3444 0
2829 -3427 3428 0
-3428 3445 0
2830 -3428 3429 0
-3429 3446 0
2833 -3429 3430 0
-3430 3447 0
2834 -3430 3431 0
-3431 3448 0
2837 -3431 3432 0
-3432 3449 0
2838 -3432 3433 0
-3433 3450 0
2841 -3433 3434 0
-3434 3451 0
2842 -3434 3435 0
-3435 3452 0
2845 -3435 3436 0
-3436 3453 0
2846 -3436 3437 0
-3437 3454 0
2849 -3437 3438 0
-3438 3455 0
2850 -3438 3439 0
-3439 3456 0
2853 -3439 3440 0
-3440 3457 0
2854 -3440 0
-2856 3441 0
-3441 3458 0
-2859 -3441 3442 0
-3442 3459 0
-2860 -3442 3443 0
-3443 3460 0
2829 -3443 3444 0
-3444 3461 0
2830 -3444 3445 0
-3445 3462 0
2833 -3445 3446 0
-3446 3463 0
2834 -3446 3447 0
-3447 3464 0
2837 -3447 3448 0
-3448 3465 0
2838 -3448 3449 0
-3449 3466 0
2841 -3449 3450 0
-3450 3467 0
2842 -3450 3451 0
-3451 3468 0
2845 -3451 3452 0
-3452 3469 0
2846 -3452 3453 0
-3453 3470 0
2849 -3453 3454 0
-3454 3471 0
2850 -3454 3455 0
-3455 3472 0
2853 -3455 3456 0
-3456 3473 0
2854 -3456 3457 0
-3457 3474 0
2857 -3457 0
-2859 3458 0
-3458 3475 0
-2860 -3458 3459 0
-3459 3476 0
2829 -3459 3460 0
-3460 3477 0
2830 -3460 3461 0
-3461 3478 0
2833 -3461 3462 0
-3462 3479 0
2834 -3462 3463 0
-3463 3480 0
2837 -3463 3464 0
-3464 3481 0
2838 -3464 3465 0
-3465 3482 0
2841 -3465 3466 0
-3466 3483 0
2842 -3466 3467 0
-3467 3484 0
2845 -3467 3468 0
-3468 3485 0
2846 -3468 3469 0
-3469 3486 0
2849 -3469 3470 0
-3470 3487 0
2850 -3470 3471 0
-3471 3488 0
2853 -3471 3472 0
-3472 3489 0
2854 -3472 3473 0
-3473 3490 0
2857 -3473 3474 0
-3474 3491 0
2858 -3474 0
-2860 3475 0
-3475 3492 0
2829 -3475 3476 0
-3476 3493 0
2830 -3476 3477 0
-3477 3494 0
2833 -3477 3478 0
-3478 3495 0
2834 -3478 3479 0
-3479 3496 0
2837 -3479 3480 0
-3480 3497 0
2838 -3480 3481 0
-3481 3498 0
2841 -3481 3482 0
-3482 3499 0
2842 -3482 3483 0
-3483 3500 0
2845 -3483 3484 0
-3484 3501 0
2846 -3484 3485 0
-3485 3502 0
2849 -3485 3486 0
-3486 3503 0
2850 -3486 3487 0
-3487 3504 0
2853 -3487 3488 0
-3488 3505 0
2854 -3488 3489 0
-3489 3506 0
2857 -3489 3490 0
-3490 3507 0
2858 -3490 3491 0
-3491 3508 0
2861 -3491 0
2829 3492 0
2830 -3492 3493 0
2833 -3493 3494 0
2834 -3494 3495 0
2837 -3495 3496 0
2838 -3496 3497 0
2841 -3497 3498 0
2842 -3498 3499 0
2845 -3499 3500 0
2846 -3500 3501 0
2849 -3501 3502 0
2850 -3502 3503 0
2853 -3503 3504 0
2854 -3504 3505 0
2857 -3505 3506 0
2858 -3506 3507 0
2861 -3507 3508 0
2862 -3508 0
-3509 1 0
-3509 4 0
3509 -1 -4 0
-3510 10 0
-3510 13 0
3510 -10 -13 0
-3511 1 0
-3511 13 0
3511 -1 -13 0
-3512 10 0
-3512 4 0
3512 -10 -4 0
-3513 2 0
-3513 5 0
3513 -2 -5 0
-3514 11 0
-3514 14 0
3514 -11 -14 0
-3515 2 0
-3515 14 0
3515 -2 -14 0
-3516 11 0
-3516 5 0
3516 -11 -5 0
-3517 3 0
-3517 6 0
3517 -3 -6 0
-3518 12 0
-3518 15 0
3518 -12 -15 0
-3519 3 0
-3519 15 0
3519 -3 -15 0
-3520 12 0
-3520 6 0
3520 -12 -6 0
-3521 4 0
-3521 7 0
3521 -4 -7 0
-3522 13 0
-3522 16 0
3522 -13 -16 0
-3523 4 0
-3523 16 0
3523 -4 -16 0
-3524 13 0
-3524 7 0
3524 -13 -7 0
-3525 5 0
-3525 8 0
3525 -5 -8 0
-3526 14 0
-3526 17 0
3526 -14 -17 0
-3527 5 0
-3527 17 0
3527 -5 -17 0
-3528 14 0
-3528 8 0
3528 -14 -8 0
-3529 6 0
-3529 9 0
3529 -6 -9 0
-3530 15 0
-3530 18 0
3530 -15 -18 0
-3531 6 0
-3531 18 0
3531 -6 -18 0
-3532 15 0
-3532 9 0
3532 -15 -9 0
-3533 7 0
-3533 1 0
3533 -7 -1 0
-3534 16 0
-3534 10 0
3534 -16 -10 0
-3535 7 0
-3535 10 0
3535 -7 -10 0
-3536 16 0
-3536 1 0
3536 -16 -1 0
-3537 8 0
-3537 2 0
3537 -8 -2 0
-3538 17 0
-3538 11 0
3538 -17 -11 0
-3539 8 0
-3539 11 0
3539 -8 -11 0
-3540 17 0
-3540 2 0
3540 -17 -2 0
-3541 9 0
-3541 3 0
3541 -9 -3 0
-3542 18 0
-3542 12 0
3542 -18 -12 0
-3543 9 0
-3543 12 0
3543 -9 -12 0
-3544 18 0
-3544 3 0
3544 -18 -3 0
3509 3545 0
-3545 3546 0
3510 -3545 3547 0
-3547 3548 0
3513 -3547 3549 0
-3549 3550 0
3514 -3549 3551 0
-3551 3552 0
3517 -3551 3553 0
-3553 3554 0
3518 -3553 3555 0
-3555 3556 0
3521 -3555 3557 0
-3557 3558 0
3522 -3557 3559 0
-3559 3560 0
3525 -3559 3561 0
-3561 3562 0
3526 -3561 3563 0
-3563 3564 0
3529 -3563 3565 0
-3565 3566 0
3530 -3565 3567 0
-3567 3568 0
3533 -3567 3569 0
-3569 3570 0
3534 -3569 3571 0
-3571 3572 0
3537 -3571 3573 0
-3573 3574 0
3538 -3573 3575 0
-3575 3576 0
3541 -3575 3577 0
-3577 3578 0
3542 -3577 3579 0
-3579 3580 0
-3511 -3579 3581 0
-3581 3582 0
-3512 -3581 0
3510 3546 0
-3546 3583 0
3513 -3546 3548 0
-3548 3584 0
3514 -3548 3550 0
-3550 3585 0
3517 -3550 3552 0
-3552 3586 0
3518 -3552 3554 0
-3554 3587 0
3521 -3554 3556 0
-3556 3588 0
3522 -3556 3558 0
-3558 3589 0
3525 -3558 3560 0
-3560 3590 0
3526 -3560 3562 0
-3562 3591 0
3529 -3562 3564 0
-3564 3592 0
3530 -3564 3566 0
-3566 3593 0
3533 -3566 3568 0
-3568 3594 0
3534 -3568 3570 0
-3570 3595 0
3537 -3570 3572 0
-3572 3596 0
3538 -3572 3574 0
-3574 3597 0
3541 -3574 3576 0
-3576 3598 0
3542 -3576 3578 0
-3578 3599 0
-3511 -3578 3580 0
-3580 3600 0
-3512 -3580 3582 0
-3582 3601 0
-3515 -3582 0
3513 3583 0
-3583 3602 0
3514 -3583 3584 0
-3584 3603 0
3517 -3584 3585 0
-3585 3604 0
3518 -3585 3586 0
-3586 3605 0
3521 -3586 3587 0
-3587 3606 0
3522 -3587 3588 0
-3588 3607 0
3525 -3588 3589 0
-3589 3608 0
3526 -3589 3590 0
-3590 3609 0
3529 -3590 3591 0
-3591 3610 0
3530 -3591 3592 0
-3592 3611 0
3533 -3592 3593 0
-3593 3612 0
3534 -3593 3594 0
-3594 3613 0
3537 -3594 3595 0
-3595 3614 0
3538 -3595 3596 0
-3596 3615 0
3541 -3596 3597 0
-3597 3616 0
3542 -3597 3598 0
-3598 3617 0
-3511 -3598 3599 0
-3599 3618 0
-3512 -3599 3600 0
-3600 3619 0
-3515 -3600 3601 0
-3601 3620 0
-3516 -3601 0
3514 3602 0
-3602 3621 0
3517 -3602 3603 0
-3603 3622 0
3518 -3603 3604 0
-3604 3623 0
3521 -3604 3605 0
-3605 3624 0
3522 -3605 3606 0
-3606 3625 0
3525 -3606 3607 0
-3607 3626 0
3526 -3607 3608 0
-3608 3627 0
3529 -3608 3609 0
-3609 3628 0
3530 -3609 3610 0
-3610 3629 0
3533 -3610 3611 0
-3611 3630 0
3534 -3611 3612 0
-3612 3631 0
3537 -3612 3613 0
-3613 3632 0
3538 -3613 3614 0
-3614 3633 0
3541 -3614 3615 0
-3615 3634 0
3542 -3615 3616 0
-3616 3635 0
-3511 -3616 3617 0
-3617 3636 0
-3512 -3617 3618 0
-3618 3637 0
-3515 -3618 3619 0
-3619 3638 0
-3516 -3619 3620 0
-3620 3639 0
-3519 -3620 0
3517 3621 0
-3621 3640 0
3518 -3621 3622 0
-3622 3641 0
3521 -3622 3623 0
-3623 3642 0
3522 -3623 3624 0
-3624 3643 0
3525 -3624 3625 0
-3625 3644 0
3526 -3625 3626 0
-3626 3645 0
3529 -3626 3627 0
-3627 3646 0
3530 -3627 3628 0
-3628 3647 0
3533 -3628 3629 0
-3629 3648 0
3534 -3629 3630 0
-3630 3649 0
3537 -3630 3631 0
-3631 3650 0
3538 -3631 3632 0
-3632 3651 0
3541 -3632 3633 0
-3633 3652 0
3542 -3633 3634 0
-3634 3653 0
-3511 -3634 3635 0
-3635 3654 0
-3512 -3635 3636 0
-3636 3655 0
-3515 -3636 3637 0
-3637 3656 0
-3516 -3637 3638 0
-3638 3657 0
-3519 -3638 3639 0
-3639 3658 0
-3520 -3639 0
3518 3640 0
-3640 3659 0
3521 -3640 3641 0
-3641 3660 0
3522 -3641 3642 0
-3642 3661 0
3525 -3642 3643 0
-3643 3662 0
3526 -3643 3644 0
-3644 3663 0
3529 -3644 3645 0
-3645 3664 0
3530 -3645 3646 0
-3646 3665 0
3533 -3646 3647 0
-3647 3666 0
3534 -3647 3648 0
-3648 3667 0
3537 -3648 3649 0
-3649 3668 0
3538 -3649 3650 0
-3650 3669 0
3541 -3650 3651 0
-3651 3670 0
3542 -3651 3652 0
-3652 3671 0
-3511 -3652 3653 0
-3653 3672 0
-3512 -3653 3654 0
-3654 3673 0
-3515 -3654 3655 0
-3655 3674 0
-3516 -3655 3656 0
-3656 3675 0
-3519 -3656 3657 0
-3657 3676 0
-3520 -3657 3658 0
-3658 3677 0
-3523 -3658 0
3521 3659 0
-3659 3678 0
3522 -3659 3660 0
-3660 3679 0
3525 -3660 3661 0
-3661 3680 0
3526 -3661 3662 0
-3662 3681 0
3529 -3662 3663 0
-3663 3682 0
3530 -3663 3664 0
-3664 3683 0
3533 -3664 3665 0
-3665 3684 0
3534 -3665 3666 0
-3666 3685 0
3537 -3666 3667 0
-3667 3686 0
3538 -3667 3668 0
-3668 3687 0
3541 -3668 3669 0
-3669 3688 0
3542 -3669 3670 0
-3670 3689 0
-3511 -3670 3671 0
-3671 3690 0
-3512 -3671 3672 0
-3672 3691 0
-3515 -3672 3673 0
-3673 3692 0
-3516 -3673 3674 0
-3674 3693 0
-3519 -3674 3675 0
-3675 3694 0
-3520 -3675 3676 0
-3676 3695 0
-3523 -3676 3677 0
-3677 3696 0
-3524 -3677 0
3522 3678 0
-3678 3697 0
3525 -3678 3679 0
-3679 3698 0
3526 -3679 3680 0
-3680 3699 0
3529 -3680 3681 0
-3681 3700 0
3530 -3681 3682 0
-3682 3701 0
3533 -3682 3683 0
-3683 3702 0
3534 -3683 3684 0
-3684 3703 0
3537 -3684 3685 0
-3685 3704 0
3538 -3685 3686 0
-3686 3705 0
3541 -3686 3687 0
-3687 3706 0
3542 -3687 3688 0
-3688 3707 0
-3511 -3688 3689 0
-3689 3708 0
-3512 -3689 3690 0
-3690 3709 0
-3515 -3690 3691 0
-3691 3710 0
-3516 -3691 3692 0
-3692 3711 0
-3519 -3692 3693 0
-3693 3712 0
-3520 -3693 3694 0
-3694 3713 0
-3523 -3694 3695 0
-3695 3714 0
-3524 -3695 3696 0
-3696 3715 0
-3527 -3696 0
3525 3697 0
-3697 3716 0
3526 -3697 3698 0
-3698 3717 0
3529 -3698 3699 0
-3699 3718 0
3530 -3699 3700 0
-3700 3719 0
3533 -3700 3701 0
-3701 3720 0
3534 -3701 3702 0
-3702 3721 0
3537 -3702 3703 0
-3703 3722 0
3538 -3703 3704 0
-3704 3723 0
3541 -3704 3705 0
-3705 3724 0
3542 -3705 3706 0
-3706 3725 0
-3511 -3706 3707 0
-3707 3726 0
-3512 -3707 3708 0
-3708 3727 0
-3515 -3708 3709 0
-3709 3728 0
-3516 -3709 3710 0
-3710 3729 0
-3519 -3710 3711 0
-3711 3730 0
-3520 -3711 3712 0
-3712 3731 0
-3523 -3712 3713 0
-3713 3732 0
-3524 -3713 3714 0
-3714 3733 0
-3527 -3714 3715 0
-3715 3734 0
-3528 -3715 0
3526 3716 0
-3716 3735 0
3529 -3716 3717 0
-3717 3736 0
3530 -3717 3718 0
-3718 3737 0
3533 -3718 3719 0
-3719 3738 0
3534 -3719 3720 0
-3720 3739 0
3537 -3720 3721 0
-3721 3740 0
3538 -3721 3722 0
-3722 3741 0
3541 -3722 3723 0
-3723 3742 0
3542 -3723 3724 0
-3724 3743 0
-3511 -3724 3725 0
-3725 3744 0
-3512 -3725 3726 0
-3726 3745 0
-3515 -3726 3727 0
-3727 3746 0
-3516 -3727 3728 0
-3728 3747 0
-3519 -3728 3729 0
-3729 3748 0
-3520 -3729 3730 0
-3730 3749 0
-3523 -3730 3731 0
-3731 3750 0
-3524 -3731 3732 0
-3732 3751 0
-3527 -3732 3733 0
-3733 3752 0
-3528 -3733 3734 0
-3734 3753 0
-3531 -3734 0
3529 3735 0
-3735 3754 0
3530 -3735 3736 0
-3736 3755 0
3533 -3736 3737 0
-3737 3756 0
3534 -3737 3738 0
-3738 3757 0
3537 -3738 3739 0
-3739 3758 0
3538 -3739 3740 0
-3740 3759 0
3541 -3740 3741 0
-3741 3760 0
3542 -3741 3742 0
-3742 3761 0
-3511 -3742 3743 0
-3743 3762 0
-3512 -3743 3744 0
-3744 3763 0
-3515 -3744 3745 0
-3745 3764 0
-3516 -3745 3746 0
-3746 3765 0
-3519 -3746 3747 0
-3747 3766 0
-3520 -3747 3748 0
-3748 3767 0
-3523 -3748 3749 0
-3749 3768 0
-3524 -3749 3750 0
-3750 3769 0
-3527 -3750 3751 0
-3751 3770 0
-3528 -3751 3752 0
-3752 3771 0
-3531 -3752 3753 0
-3753 3772 0
-3532 -3753 0
3530 3754 0
-3754 3773 0
3533 -3754 3755 0
-3755 3774 0
3534 -3755 3756 0
-3756 3775 0
3537 -3756 3757 0
-3757 3776 0
3538 -3757 3758 0
-3758 3777 0
3541 -3758 3759 0
-3759 3778 0
3542 -3759 3760 0
-3760 3779 0
-3511 -3760 3761 0
-3761 3780 0
-3512 -3761 3762 0
-3762 3781 0
-3515 -3762 3763 0
-3763 3782 0
-3516 -3763 3764 0
-3764 3783 0
-3519 -3764 3765 0
-3765 3784 0
-3520 -3765 3766 0
-3766 3785 0
-3523 -3766 3767 0
-3767 3786 0
-3524 -3767 3768 0
-3768 3787 0
-3527 -3768 3769 0
-3769 3788 0
-3528 -3769 3770 0
-3770 3789 0
-3531 -3770 3771 0
-3771 3790 0
-3532 -3771 3772 0
-3772 3791 0
-3535 -3772 0
3533 3773 0
-3773 3792 0
3534 -3773 3774 0
-3774 3793 0
3537 -3774 3775 0
-3775 3794 0
3538 -3775 3776 0
-3776 3795 0
3541 -3776 3777 0
-3777 3796 0
3542 -3777 3778 0
-3778 3797 0
-3511 -3778 3779 0
-3779 3798 0
-3512 -3779 3780 0
-3780 3799 0
-3515 -3780 3781 0
-3781 3800 0
-3516 -3781 3782 0
-3782 3801 0
-3519 -3782 3783 0
-3783 3802 0
-3520 -3783 3784 0
-3784 3803 0
-3523 -3784 3785 0
-3785 3804 0
-3524 -3785 3786 0
-3786 3805 0
-3527 -3786 3787 0
-3787 3806 0
-3528 -3787 3788 0
-3788 3807 0
-3531 -3788 3789 0
-3789 3808 0
-3532 -3789 3790 0
-3790 3809 0
-3535 -3790 3791 0
-3791 3810 0
-3536 -3791 0
3534 3792 0
-3792 3811 0
3537 -3792 3793 0
-3793 3812 0
3538 -3793 3794 0
-3794 3813 0
3541 -3794 3795 0
-3795 3814 0
3542 -3795 3796 0
-3796 3815 0
-3511 -3796 3797 0
-3797 3816 0
-3512 -3797 3798 0
-3798 3817 0
-3515 -3798 3799 0
-3799 3818 0
-3516 -3799 3800 0
-3800 3819 0
-3519 -3800 3801 0
-3801 3820 0
-3520 -3801 3802 0
-3802 3821 0
-3523 -3802 3803 0
-3803 3822 0
-3524 -3803 3804 0
-3804 3823 0
-3527 -3804 3805 0
-3805 3824 0
-3528 -3805 3806 0
-3806 3825 0
-3531 -3806 3807 0
-3807 3826 0
-3532 -3807 3808 0
-3808 3827 0
-3535 -3808 3809 0
-3809 3828 0
-3536 -3809 3810 0
-3810 3829 0
-3539 -3810 0
3537 3811 0
-3811 3830 0
3538 -3811 3812 0
-3812 3831 0
3541 -3812 3813 0
-3813 3832 0
3542 -3813 3814 0
-3814 3833 0
-3511 -3814 3815 0
-3815 3834 0
-3512 -3815 3816 0
-3816 3835 0
-3515 -3816 3817 0
-3817 3836 0
-3516 -3817 3818 0
-3818 3837 0
-3519 -3818 3819 0
-3819 3838 0
-3520 -3819 3820 0
-3820 3839 0
-3523 -3820 3821 0
-3821 3840 0
-3524 -3821 3822 0
-3822 3841 0
-3527 -3822 3823 0
-3823 3842 0
-3528 -3823 3824 0
-3824 3843 0
-3531 -3824 3825 0
-3825 3844 0
-3532 -3825 3826 0
-3826 3845 0
-3535 -3826 3827 0
-3827 3846 0
-3536 -3827 3828 0
-3828 3847 0
-3539 -3828 3829 0
-3829 3848 0
-3540 -3829 0
3538 3830 0
-3830 3849 0
3541 -3830 3831 0
-3831 3850 0
3542 -3831 3832 0
-3832 3851 0
-3511 -3832 3833 0
-3833 3852 0
-3512 -3833 3834 0
-3834 3853 0
-3515 -3834 3835 0
-3835 3854 0
-3516 -3835 3836 0
-3836 3855 0
-3519 -3836 3837 0
-3837 3856 0
-3520 -3837 3838 0
-3838 3857 0
-3523 -3838 3839 0
-3839 3858 0
-3524 -3839 3840 0
-3840 3859 0
-3527 -3840 3841 0
-3841 3860 0
-3528 -3841 3842 0
-3842 3861 0
-3531 -3842 3843 0
-3843 3862 0
-3532 -3843 3844 0
-3844 3863 0
-3535 -3844 3845 0
-3845 3864 0
-3536 -3845 3846 0
-3846 3865 0
-3539 -3846 3847 0
-3847 3866 0
-3540 -3847 3848 0
-3848 3867 0
-3543 -3848 0
3541 3849 0
3542 -3849 3850 0
-3511 -3850 3851 0
-3512 -3851 3852 0
-3515 -3852 3853 0
-3516 -3853 3854 0
-3519 -3854 3855 0
-3520 -3855 3856 0
-3523 -3856 3857 0
-3524 -3857 3858 0
-3527 -3858 3859 0
-3528 -3859 3860 0
-3531 -3860 3861 0
-3532 -3861 3862 0
-3535 -3862 3863 0
-3536 -3863 3864 0
-3539 -3864 3865 0
-3540 -3865 3866 0
-3543 -3866 3867 0
-3544 -3867 0
-3509 3868 0
-3868 3869 0
-3510 -3868 3870 0
-3870 3871 0
-3513 -3870 3872 0
-3872 3873 0
-3514 -3872 3874 0
-3874 3875 0
-3517 -3874 3876 0
-3876 3877 0
-3518 -3876 3878 0
-3878 3879 0
-3521 -3878 3880 0
-3880 3881 0
-3522 -3880 3882 0
-3882 3883 0
-3525 -3882 3884 0
-3884 3885 0
-3526 -3884 3886 0
-3886 3887 0
-3529 -3886 3888 0
-3888 3889 0
-3530 -3888 3890 0
-3890 3891 0
-3533 -3890 3892 0
-3892 3893 0
-3534 -3892 3894 0
-3894 3895 0
-3537 -3894 3896 0
-3896 3897 0
-3538 -3896 3898 0
-3898 3899 0
-3541 -3898 3900 0
-3900 3901 0
-3542 -3900 0
-3510 3869 0
-3869 3902 0
-3513 -3869 3871 0
-3871 3903 0
-3514 -3871 3873 0
-3873 3904 0
-3517 -3873 3875 0
-3875 3905 0
-3518 -3875 3877 0
-3877 3906 0
-3521 -3877 3879 0
-3879 3907 0
-3522 -3879 3881 0
-3881 3908 0
-3525 -3881 3883 0
-3883 3909 0
-3526 -3883 3885 0
-3885 3910 0
-3529 -3885 3887 0
-3887 3911 0
-3530 -3887 3889 0
-3889 3912 0
-3533 -3889 3891 0
-3891 3913 0
-3534 -3891 3893 0
-3893 3914 0
-3537 -3893 3895 0
-3895 3915 0
-3538 -3895 3897 0
-3897 3916 0
-3541 -3897 3899 0
-3899 3917 0
-3542 -3899 3901 0
-3901 3918 0
3511 -3901 0
-3513 3902 0
-3902 3919 0
-3514 -3902 3903 0
-3903 3920 0
-3517 -3903 3904 0
-3904 3921 0
-3518 -3904 3905 0
-3905 3922 0
-3521 -3905 3906 0
-3906 3923 0
-3522 -3906 3907 0
-3907 3924 0
-3525 -3907 3908 0
-3908 3925 0
-3526 -3908 3909 0
-3909 3926 0
-3529 -3909 3910 0
-3910 3927 0
-3530 -3910 3911 0
-3911 3928 0
-3533 -3911 3912 0
-3912 3929 0
-3534 -3912 3913 0
-3913 3930 0
-3537 -3913 3914 0
-3914 3931 0
-3538 -3914 3915 0
-3915 3932 0
-3541 -3915 3916 0
-3916 3933 0
-3542 -3916 3917 0
-3917 3934 0
3511 -3917 3918 0
-3918 3935 0
3512 -3918 0
-3514 3919 0
-3919 3936 0
-3517 -3919 3920 0
-3920 3937 0
-3518 -3920 3921 0
-3921 3938 0
-3521 -3921 3922 0
-3922 3939 0
-3522 -3922 3923 0
-3923 3940 0
-3525 -3923 3924 0
-3924 3941 0
-3526 -3924 3925 0
-3925 3942 0
-3529 -3925 3926 0
-3926 3943 0
-3530 -3926 3927 0
-3927 3944 0
-3533 -3927 3928 0
-3928 3945 0
-3534 -3928 3929 0
-3929 3946 0
-3537 -3929 3930 0
-3930 3947 0
-3538 -3930 3931 0
-3931 3948 0
-3541 -3931 3932 0
-3932 3949 0
-3542 -3932 3933 0
-3933 3950 0
3511 -3933 3934 0
-3934 3951 0
3512 -3934 3935 0
-3935 3952 0
3515 -3935 0
-3517 3936 0
-3936 3953 0
-3518 -3936 3937 0
-3937 3954 0
-3521 -3937 3938 0
-3938 3955 0
-3522 -3938 3939 0
-3939 3956 0
-3525 -3939 3940 0
-3940 3957 0
-3526 -3940 3941 0
-3941 3958 0
-3529 -3941 3942 0
-3942 3959 0
-3530 -3942 3943 0
-3943 3960 0
-3533 -3943 3944 0
-3944 3961 0
-3534 -3944 3945 0
-3945 3962 0
-3537 -3945 3946 0
-3946 3963 0
-3538 -3946 3947 0
-3947 3964 0
-3541 -3947 3948 0
-3948 3965 0
-3542 -3948 3949 0
-3949 3966 0
3511 -3949 3950 0
-3950 3967 0
3512 -3950 3951 0
-3951 3968 0
3515 -3951 3952 0
-3952 3969 0
3516 -3952 0
-3518 3953 0
-3953 3970 0
-3521 -3953 3954 0
-3954 3971 0
-3522 -3954 3955 0
-3955 3972 0
-3525 -3955 3956 0
-3956 3973 0
-3526 -3956 3957 0
-3957 3974 0
-3529 -3957 3958 0
-3958 3975 0
-3530 -3958 3959 0
-3959 3976 0
-3533 -3959 3960 0
-3960 3977 0
-3534 -3960 3961 0
-3961 3978 0
-3537 -3961 3962 0
-3962 3979 0
-3538 -3962 3963 0
-3963 3980 0
-3541 -3963 3964 0
-3964 3981 0
-3542 -3964 3965 0
-3965 3982 0
3511 -3965 3966 0
-3966 3983 0
3512 -3966 3967 0
-3967 3984 0
3515 -3967 3968 0
-3968 3985 0
3516 -3968 3969 0
-3969 3986 0
3519 -3969 0
-3521 3970 0
-3970 3987 0
-3522 -3970 3971 0
-3971 3988 0
-3525 -3971 3972 0
-3972 3989 0
-3526 -3972 3973 0
-3973 3990 0
-3529 -3973 3974 0
-3974 3991 0
-3530 -3974 3975 0
-3975 3992 0
-3533 -3975 3976 0
-3976 3993 0
-3534 -3976 3977 0
-3977 3994 0
-3537 -3977 3978 0
-3978 3995 0
-3538 -3978 3979 0
-3979 3996 0
-3541 -3979 3980 0
-3980 3997 0
-3542 -3980 3981 0
-3981 3998 0
3511 -3981 3982 0
-3982 3999 0
3512 -3982 3983 0
-3983 4000 0
3515 -3983 3984 0
-3984 4001 0
3516 -3984 3985 0
-3985 4002 0
3519 -3985 3986 0
-3986 4003 0
3520 -3986 0
-3522 3987 0
-3987 4004 0
-3525 -3987 3988 0
-3988 4005 0
-3526 -3988 3989 0
-3989 4006 0
-3529 -3989 3990 0
-3990 4007 0
-3530 -3990 3991 0
-3991 4008 0
-3533 -3991 3992 0
-3992 4009 0
-3534 -3992 3993 0
-3993 4010 0
-3537 -3993 3994 0
-3994 4011 0
-3538 -3994 3995 0
-3995 4012 0
-3541 -3995 3996 0
-3996 4013 0
-3542 -3996 3997 0
-3997 4014 0
3511 -3997 3998 0
-3998 4015 0
3512 -3998 3999 0
-3999 4016 0
3515 -3999 4000 0
-4000 4017 0
3516 -4000 4001 0
-4001 4018 0
3519 -4001 4002 0
-4002 4019 0
3520 -4002 4003 0
-4003 4020 0
3523 -4003 0
-3525 4004 0
-4004 4021 0
-3526 -4004 4005 0
-4005 4022 0
-3529 -4005 4006 0
-4006 4023 0
-3530 -4006 4007 0
-4007 4024 0
-3533 -4007 4008 0
-4008 4025 0
-3534 -4008 4009 0
-4009 4026 0
-3537 -4009 4010 0
-4010 4027 0
-3538 -4010 4011 0
-4011 4028 0
-3541 -4011 4012 0
-4012 4029 0
-3542 -4012 4013 0
-4013 4030 0
3511 -4013 4014 0
-4014 4031 0
3512 -4014 4015 0
-4015 4032 0
3515 -4015 4016 0
-4016 4033 0
3516 -4016 4017 0
-4017 4034 0
3519 -4017 4018 0
-4018 4035 0
3520 -4018 4019 0
-4019 4036 0
3523 -4019 4020 0
-4020 4037 0
3524 -4020 0
-3526 4021 0
-4021 4038 0
-3529 -4021 4022 0
-4022 4039 0
-3530 -4022 4023 0
-4023 4040 0
-3533 -4023 4024 0
-4024 4041 0
-3534 -4024 4025 0
-4025 4042 0
-3537 -4025 4026 0
-4026 4043 0
-3538 -4026 4027 0
-4027 4044 0
-3541 -4027 4028 0
-4028 4045 0
-3542 -4028 4029 0
-4029 4046 0
3511 -4029 4030 0
-4030 4047 0
3512 -4030 4031 0
-4031 4048 0
3515 -4031 4032 0
-4032 4049 0
3516 -4032 4033 0
-4033 4050 0
3519 -4033 4034 0
-4034 4051 0
3520 -4034 4035 0
-4035 4052 0
3523 -4035 4036 0
-4036 4053 0
3524 -4036 4037 0
-4037 4054 0
3527 -4037 0
-3529 4038 0
-4038 4055 0
-3530 -4038 4039 0
-4039 4056 0
-3533 -4039 4040 0
-4040 4057 0
-3534 -4040 4041 0
-4041 4058 0
-3537 -4041 4042 0
-4042 4059 0
-3538 -4042 4043 0
-4043 4060 0
-3541 -4043 4044 0
-4044 4061 0
-3542 -4044 4045 0
-4045 4062 0
3511 -4045 4046 0
-4046 4063 0
3512 -4046 4047 0
-4047 4064 0
3515 -4047 4048 0
-4048 4065 0
3516 -4048 4049 0
-4049 4066 0
3519 -4049 4050 0
-4050 4067 0
3520 -4050 4051 0
-4051 4068 0
3523 -4051 4052 0
-4052 4069 0
3524 -4052 4053 0
-4053 4070 0
3527 -4053 4054 0
-4054 4071 0
3528 -4054 0
-3530 4055 0
-4055 4072 0
-3533 -4055 4056 0
-4056 4073 0
-3534 -4056 4057 0
-4057 4074 0
-3537 -4057 4058 0
-4058 4075 0
-3538 -4058 4059 0
-4059 4076 0
-3541 -4059 4060 0
-4060 4077 0
-3542 -4060 4061 0
-4061 4078 0
3511 -4061 4062 0
-4062 4079 0
3512 -4062 4063 0
-4063 4080 0
3515 -4063 4064 0
-4064 4081 0
3516 -4064 4065 0
-4065 4082 0
3519 -4065 4066 0
-4066 4083 0
3520 -4066 4067 0
-4067 4084 0
3523 -4067 4068 0
-4068 4085 0
3524 -4068 4069 0
-4069 4086 0
3527 -4069 4070 0
-4070 4087 0
3528 -4070 4071 0
-4071 4088 0
3531 -4071 0
-3533 4072 0
-4072 4089 0
-3534 -4072 4073 0
-4073 4090 0
-3537 -4073 4074 0
-4074 4091 0
-3538 -4074 4075 0
-4075 4092 0
-3541 -4075 4076 0
-4076 4093 0
-3542 -4076 4077 0
-4077 4094 0
3511 -4077 4078 0
-4078 4095 0
3512 -4078 4079 0
-4079 4096 0
3515 -4079 4080 0
-4080 4097 0
3516 -4080 4081 0
-4081 4098 0
3519 -4081 4082 0
-4082 4099 0
3520 -4082 4083 0
-4083 4100 0
3523 -4083 4084 0
-4084 4101 0
3524 -4084 4085 0
-4085 4102 0
3527 -4085 4086 0
-4086 4103 0
3528 -4086 4087 0
-4087 4104 0
3531 -4087 4088 0
-4088 4105 0
3532 -4088 0
-3534 4089 0
-4089 4106 0
-3537 -4089 4090 0
-4090 4107 0
-3538 -4090 4091 0
-4091 4108 0
-3541 -4091 4092 0
-4092 4109 0
-3542 -4092 4093 0
-4093 4110 0
3511 -4093 4094 0
-4094 4111 0
3512 -4094 4095 0
-4095 4112 0
3515 -4095 4096 0
-4096 4113 0
3516 -4096 4097 0
-4097 4114 0
3519 -4097 4098 0
-4098 4115 0
3520 -4098 4099 0
-4099 4116 0
3523 -4099 4100 0
-4100 4117 0
3524 -4100 4101 0
-4101 4118 0
3527 -4101 4102 0
-4102 4119 0
3528 -4102 4103 0
-4103 4120 0
3531 -4103 4104 0
-4104 4121 0
3532 -4104 4105 0
-4105 4122 0
3535 -4105 0
-3537 4106 0
-4106 4123 0
-3538 -4106 4107 0
-4107 4124 0
-3541 -4107 4108 0
-4108 4125 0
-3542 -4108 4109 0
-4109 4126 0
3511 -4109 4110 0
-4110 4127 0
3512 -4110 4111 0
-4111 4128 0
3515 -4111 4112 0
-4112 4129 0
3516 -4112 4113 0
-4113 4130 0
3519 -4113 4114 0
-4114 4131 0
3520 -4114 4115 0
-4115 4132 0
3523 -4115 4116 0
-4116 4133 0
3524 -4116 4117 0
-4117 4134 0
3527 -4117 4118 0
-4118 4135 0
3528 -4118 4119 0
-4119 4136 0
3531 -4119 4120 0
-4120 4137 0
3532 -4120 4121 0
-4121 4138 0
3535 -4121 4122 0
-4122 4139 0
3536 -4122 0
-3538 4123 0
-4123 4140 0
-3541 -4123 4124 0
-4124 4141 0
-3542 -4124 4125 0
-4125 4142 0
3511 -4125 4126 0
-4126 4143 0
3512 -4126 4127 0
-4127 4144 0
3515 -4127 4128 0
-4128 4145 0
3516 -4128 4129 0
-4129 4146 0
3519 -4129 4130 0
-4130 4147 0
3520 -4130 4131 0
-4131 4148 0
3523 -4131 4132 0
-4132 4149 0
3524 -4132 4133 0
-4133 4150 0
3527 -4133 4134 0
-4134 4151 0
3528 -4134 4135 0
-4135 4152 0
3531 -4135 4136 0
-4136 4153 0
3532 -4136 4137 0
-4137 4154 0
3535 -4137 4138 0
-4138 4155 0
3536 -4138 4139 0
-4139 4156 0
3539 -4139 0
-3541 4140 0
-4140 4157 0
-3542 -4140 4141 0
-4141 4158 0
3511 -4141 4142 0
-4142 4159 0
3512 -4142 4143 0
-4143 4160 0
3515 -4143 4144 0
-4144 4161 0
3516 -4144 4145 0
-4145 4162 0
3519 -4145 4146 0
-4146 4163 0
3520 -4146 4147 0
-4147 4164 0
3523 -4147 4148 0
-4148 4165 0
3524 -4148 4149 0
-4149 4166 0
3527 -4149 4150 0
-4150 4167 0
3528 -4150 4151 0
-4151 4168 0
3531 -4151 4152 0
-4152 4169 0
3532 -4152 4153 0
-4153 4170 0
3535 -4153 4154 0
-4154 4171 0
3536 -4154 4155 0
-4155 4172 0
3539 -4155 4156 0
-4156 4173 0
3540 -4156 0
-3542 4157 0
-4157 4174 0
3511 -4157 4158 0
-4158 4175 0
3512 -4158 4159 0
-4159 4176 0
3515 -4159 4160 0
-4160 4177 0
3516 -4160 4161 0
-4161 4178 0
3519 -4161 4162 0
-4162 4179 0
3520 -4162 4163 0
-4163 4180 0
3523 -4163 4164 0
-4164 4181 0
3524 -4164 4165 0
-4165 4182 0
3527 -4165 4166 0
-4166 4183 0
3528 -4166 4167 0
-4167 4184 0
3531 -4167 4168 0
-4168 4185 0
3532 -4168 4169 0
-4169 4186 0
3535 -4169 4170 0
-4170 4187 0
3536 -4170 4171 0
-4171 4188 0
3539 -4171 4172 0
-4172 4189 0
3540 -4172 4173 0
-4173 4190 0
3543 -4173 0
3511 4174 0
3512 -4174 4175 0
3515 -4175 4176 0
3516 -4176 4177 0
3519 -4177 4178 0
3520 -4178 4179 0
3523 -4179 4180 0
3524 -4180 4181 0
3527 -4181 4182 0
3528 -4182 4183 0
3531 -4183 4184 0
3532 -4184 4185 0
3535 -4185 4186 0
3536 -4186 4187 0
3539 -4187 4188 0
3540 -4188 4189 0
3543 -4189 4190 0
3544 -4190 0
-4191 1 0
-4191 6 0
4191 -1 -6 0
-4192 10 0
-4192 15 0
4192 -10 -15 0
-4193 1 0
-4193 15 0
4193 -1 -15 0
-4194 10 0
-4194 6 0
4194 -10 -6 0
-4195 2 0
-4195 4 0
4195 -2 -4 0
-4196 11 0
-4196 13 0
4196 -11 -13 0
-4197 2 0
-4197 13 0
4197 -2 -13 0
-4198 11 0
-4198 4 0
4198 -11 -4 0
-4199 3 0
-4199 5 0
4199 -3 -5 0
-4200 12 0
-4200 14 0
4200 -12 -14 0
-4201 3 0
-4201 14 0
4201 -3 -14 0
-4202 12 0
-4202 5 0
4202 -12 -5 0
-4203 4 0
-4203 9 0
4203 -4 -9 0
-4204 13 0
-4204 18 0
4204 -13 -18 0
-4205 4 0
-4205 18 0
4205 -4 -18 0
-4206 13 0
-4206 9 0
4206 -13 -9 0
-4207 5 0
-4207 7 0
4207 -5 -7 0
-4208 14 0
-4208 16 0
4208 -14 -16 0
-4209 5 0
-4209 16 0
4209 -5 -16 0
-4210 14 0
-4210 7 0
4210 -14 -7 0
-4211 6 0
-4211 8 0
4211 -6 -8 0
-4212 15 0
-4212 17 0
4212 -15 -17 0
-4213 6 0
-4213 17 0
4213 -6 -17 0
-4214 15 0
-4214 8 0
4214 -15 -8 0
-4215 7 0
-4215 3 0
4215 -7 -3 0
-4216 16 0
-4216 12 0
4216 -16 -12 0
-4217 7 0
-4217 12 0
4217 -7 -12 0
-4218 16 0
-4218 3 0
4218 -16 -3 0
-4219 8 0
-4219 1 0
4219 -8 -1 0
-4220 17 0
-4220 10 0
4220 -17 -10 0
-4221 8 0
-4221 10 0
4221 -8 -10 0
-4222 17 0
-4222 1 0
4222 -17 -1 0
-4223 9 0
-4223 2 0
4223 -9 -2 0
-4224 18 0
-4224 11 0
4224 -18 -11 0
-4225 9 0
-4225 11 0
4225 -9 -11 0
-4226 18 0
-4226 2 0
4226 -18 -2 0
4191 4227 0
-4227 4228 0
4192 -4227 4229 0
-4229 4230 0
4195 -4229 4231 0
-4231 4232 0
4196 -4231 4233 0
-4233 4234 0
4199 -4233 4235 0
-4235 4236 0
4200 -4235 4237 0
-4237 4238 0
4203 -4237 4239 0
-4239 4240 0
4204 -4239 4241 0
-4241 4242 0
4207 -4241 4243 0
-4243 4244 0
4208 -4243 4245 0
-4245 4246 0
4211 -4245 4247 0
-4247 4248 0
4212 -4247 4249 0
-4249 4250 0
4215 -4249 4251 0
-4251 4252 0
4216 -4251 4253 0
-4253 4254 0
4219 -4253 4255 0
-4255 4256 0
4220 -4255 4257 0
-4257 4258 0
4223 -4257 4259 0
-4259 4260 0
4224 -4259 4261 0
-4261 4262 0
-4193 -4261 4263 0
-4263 4264 0
-4194 -4263 0
4192 4228 0
-4228 4265 0
4195 -4228 4230 0
-4230 4266 0
4196 -4230 4232 0
-4232 4267 0
4199 -4232 4234 0
-4234 4268 0
4200 -4234 4236 0
-4236 4269 0
4203 -4236 4238 0
-4238 4270 0
4204 -4238 4240 0
-4240 4271 0
4207 -4240 4242 0
-4242 4272 0
4208 -4242 4244 0
-4244 4273 0
4211 -4244 4246 0
-4246 4274 0
4212 -4246 4248 0
-4248 4275 0
4215 -4248 4250 0
-4250 4276 0
4216 -4250 4252 0
-4252 4277 0
4219 -4252 4254 0
-4254 4278 0
4220 -4254 4256 0
-4256 4279 0
4223 -4256 4258 0
-4258 4280 0
4224 -4258 4260 0
-4260 4281 0
-4193 -4260 4262 0
-4262 4282 0
-4194 -4262 4264 0
-4264 4283 0
-4197 -4264 0
4195 4265 0
-4265 4284 0
4196 -4265 4266 0
-4266 4285 0
4199 -4266 4267 0
-4267 4286 0
4200 -4267 4268 0
-4268 4287 0
4203 -4268 4269 0
-4269 4288 0
4204 -4269 4270 0
-4270 4289 0
4207 -4270 4271 0
-4271 4290 0
4208 -4271 4272 0
-4272 4291 0
4211 -4272 4273 0
-4273 4292 0
4212 -4273 4274 0
-4274 4293 0
4215 -4274 4275 0
-4275 4294 0
4216 -4275 4276 0
-4276 4295 0
4219 -4276 4277 0
-4277 4296 0
4220 -4277 4278 0
-4278 4297 0
4223 -4278 4279 0
-4279 4298 0
4224 -4279 4280 0
-4280 4299 0
-4193 -4280 4281 0
-4281 4300 0
-4194 -4281 4282 0
-4282 4301 0
-4197 -4282 4283 0
-4283 4302 0
-4198 -4283 0
4196 4284 0
-4284 4303 0
4199 -4284 4285 0
-4285 4304 0
4200 -4285 4286 0
-4286 4305 0
4203 -4286 4287 0
-4287 4306 0
4204 -4287 4288 0
-4288 4307 0
4207 -4288 4289 0
-4289 4308 0
4208 -4289 4290 0
-4290 4309 0
4211 -4290 4291 0
-4291 4310 0
4212 -4291 4292 0
-4292 4311 0
4215 -4292 4293 0
-4293 4312 0
4216 -4293 4294 0
-4294 4313 0
4219 -4294 4295 0
-4295 4314 0
4220 -4295 4296 0
-4296 4315 0
4223 -4296 4297 0
-4297 4316 0
4224 -4297 4298 0
-4298 4317 0
-4193 -4298 4299 0
-4299 4318 0
-4194 -4299 4300 0
-4300 4319 0
-4197 -4300 4301 0
-4301 4320 0
-4198 -4301 4302 0
-4302 4321 0
-4201 -4302 0
4199 4303 0
-4303 4322 0
4200 -4303 4304 0
-4304 4323 0
4203 -4304 4305 0
-4305 4324 0
4204 -4305 4306 0
-4306 4325 0
4207 -4306 4307 0
-4307 4326 0
4208 -4307 4308 0
-4308 4327 0
4211 -4308 4309 0
-4309 4328 0
4212 -4309 4310 0
-4310 4329 0
4215 -4310 4311 0
-4311 4330 0
4216 -4311 4312 0
-4312 4331 0
4219 -4312 4313 0
-4313 4332 0
4220 -4313 4314 0
-4314 4333 0
4223 -4314 4315 0
-4315 4334 0
4224 -4315 4316 0
-4316 4335 0
-4193 -4316 4317 0
-4317 4336 0
-4194 -4317 4318 0
-4318 4337 0
-4197 -4318 4319 0
-4319 4338 0
-4198 -4319 4320 0
-4320 4339 0
-4201 -4320 4321 0
-4321 4340 0
-4202 -4321 0
4200 4322 0
-4322 4341 0
4203 -4322 4323 0
-4323 4342 0
4204 -4323 4324 0
-4324 4343 0
4207 -4324 4325 0
-4325 4344 0
4208 -4325 4326 0
-4326 4345 0
4211 -4326 4327 0
-4327 4346 0
4212 -4327 4328 0
-4328 4347 0
4215 -4328 4329 0
-4329 4348 0
4216 -4329 4330 0
-4330 4349 0
4219 -4330 4331 0
-4331 4350 0
4220 -4331 4332 0
-4332 4351 0
4223 -4332 4333 0
-4333 4352 0
4224 -4333 4334 0
-4334 4353 0
-4193 -4334 4335 0
-4335 4354 0
-4194 -4335 4336 0
-4336 4355 0
-4197 -4336 4337 0
-4337 4356 0
-4198 -4337 4338 0
-4338 4357 0
-4201 -4338 4339 0
-4339 4358 0
-4202 -4339 4340 0
-4340 4359 0
-4205 -4340 0
4203 4341 0
-4341 4360 0
4204 -4341 4342 0
-4342 4361 0
4207 -4342 4343 0
-4343 4362 0
4208 -4343 4344 0
-4344 4363 0
4211 -4344 4345 0
-4345 4364 0
4212 -4345 4346 0
-4346 4365 0
4215 -4346 4347 0
-4347 4366 0
4216 -4347 4348 0
-4348 4367 0
4219 -4348 4349 0
-4349 4368 0
4220 -4349 4350 0
-4350 4369 0
4223 -4350 4351 0
-4351 4370 0
4224 -4351 4352 0
-4352 4371 0
-4193 -4352 4353 0
-4353 4372 0
-4194 -4353 4354 0
-4354 4373 0
-4197 -4354 4355 0
-4355 4374 0
-4198 -4355 4356 0
-4356 4375 0
-4201 -4356 4357 0
-4357 4376 0
-4202 -4357 4358 0
-4358 4377 0
-4205 -4358 4359 0
-4359 4378 0
-4206 -4359 0
4204 4360 0
-4360 4379 0
4207 -4360 4361 0
-4361 4380 0
4208 -4361 4362 0
-4362 4381 0
4211 -4362 4363 0
-4363 4382 0
4212 -4363 4364 0
-4364 4383 0
4215 -4364 4365 0
-4365 4384 0
4216 -4365 4366 0
-4366 4385 0
4219 -4366 4367 0
-4367 4386 0
4220 -4367 4368 0
-4368 4387 0
4223 -4368 4369 0
-4369 4388 0
4224 -4369 4370 0
-4370 4389 0
-4193 -4370 4371 0
-4371 4390 0
-4194 -4371 4372 0
-4372 4391 0
-4197 -4372 4373 0
-4373 4392 0
-4198 -4373 4374 0
-4374 4393 0
-4201 -4374 4375 0
-4375 4394 0
-4202 -4375 4376 0
-4376 4395 0
-4205 -4376 4377 0
-4377 4396 0
-4206 -4377 4378 0
-4378 4397 0
-4209 -4378 0
4207 4379 0
-4379 4398 0
4208 -4379 4380 0
-4380 4399 0
4211 -4380 4381 0
-4381 4400 0
4212 -4381 4382 0
-4382 4401 0
4215 -4382 4383 0
-4383 4402 0
4216 -4383 4384 0
-4384 4403 0
4219 -4384 4385 0
-4385 4404 0
4220 -4385 4386 0
-4386 4405 0
4223 -4386 4387 0
-4387 4406 0
4224 -4387 4388 0
-4388 4407 0
-4193 -4388 4389 0
-4389 4408 0
-4194 -4389 4390 0
-4390 4409 0
-4197 -4390 4391 0
-4391 4410 0
-4198 -4391 4392 0
-4392 4411 0
-4201 -4392 4393 0
-4393 4412 0
-4202 -4393 4394 0
-4394 4413 0
-4205 -4394 4395 0
-4395 4414 0
-4206 -4395 4396 0
-4396 4415 0
-4209 -4396 4397 0
-4397 4416 0
-4210 -4397 0
4208 4398 0
-4398 4417 0
4211 -4398 4399 0
-4399 4418 0
4212 -4399 4400 0
-4400 4419 0
4215 -4400 4401 0
-4401 4420 0
4216 -4401 4402 0
-4402 4421 0
4219 -4402 4403 0
-4403 4422 0
4220 -4403 4404 0
-4404 4423 0
4223 -4404 4405 0
-4405 4424 0
4224 -4405 4406 0
-4406 4425 0
-4193 -4406 4407 0
-4407 4426 0
-4194 -4407 4408 0
-4408 4427 0
-4197 -4408 4409 0
-4409 4428 0
-4198 -4409 4410 0
-4410 4429 0
-4201 -4410 4411 0
-4411 4430 0
-4202 -4411 4412 0
-4412 4431 0
-4205 -4412 4413 0
-4413 4432 0
-4206 -4413 4414 0
-4414 4433 0
-4209 -4414 4415 0
-4415 4434 0
-4210 -4415 4416 0
-4416 4435 0
-4213 -4416 0
4211 4417 0
-4417 4436 0
4212 -4417 4418 0
-4418 4437 0
4215 -4418 4419 0
-4419 4438 0
4216 -4419 4420 0
-4420 4439 0
4219 -4420 4421 0
-4421 4440 0
4220 -4421 4422 0
-4422 4441 0
4223 -4422 4423 0
-4423 4442 0
4224 -4423 4424 0
-4424 4443 0
-4193 -4424 4425 0
-4425 4444 0
-4194 -4425 4426 0
-4426 4445 0
-4197 -4426 4427 0
-4427 4446 0
-4198 -4427 4428 0
-4428 4447 0
-4201 -4428 4429 0
-4429 4448 0
-4202 -4429 4430 0
-4430 4449 0
-4205 -4430 4431 0
-4431 4450 0
-4206 -4431 4432 0
-4432 4451 0
-4209 -4432 4433 0
-4433 4452 0
-4210 -4433 4434 0
-4434 4453 0
-4213 -4434 4435 0
-4435 4454 0
-4214 -4435 0
4212 4436 0
-4436 4455 0
4215 -4436 4437 0
-4437 4456 0
4216 -4437 4438 0
-4438 4457 0
4219 -4438 4439 0
-4439 4458 0
4220 -4439 4440 0
-4440 4459 0
4223 -4440 4441 0
-4441 4460 0
4224 -4441 4442 0
-4442 4461 0
-4193 -4442 4443 0
-4443 4462 0
-4194 -4443 4444 0
-4444 4463 0
-4197 -4444 4445 0
-4445 4464 0
-4198 -4445 4446 0
-4446 4465 0
-4201 -4446 4447 0
-4447 4466 0
-4202 -4447 4448 0
-4448 4467 0
-4205 -4448 4449 0
-4449 4468 0
-4206 -4449 4450 0
-4450 4469 0
-4209 -4450 4451 0
-4451 4470 0
-4210 -4451 4452 0
-4452 4471 0
-4213 -4452 4453 0
-4453 4472 0
-4214 -4453 4454 0
-4454 4473 0
-4217 -4454 0
4215 4455 0
-4455 4474 0
4216 -4455 4456 0
-4456 4475 0
4219 -4456 4457 0
-4457 4476 0
4220 -4457 4458 0
-4458 4477 0
4223 -4458 4459 0
-4459 4478 0
4224 -4459 4460 0
-4460 4479 0
-4193 -4460 4461 0
-4461 4480 0
-4194 -4461 4462 0
-4462 4481 0
-4197 -4462 4463 0
-4463 4482 0
-4198 -4463 4464 0
-4464 4483 0
-4201 -4464 4465 0
-4465 4484 0
-4202 -4465 4466 0
-4466 4485 0
-4205 -4466 4467 0
-4467 4486 0
-4206 -4467 4468 0
-4468 4487 0
-4209 -4468 4469 0
-4469 4488 0
-4210 -4469 4470 0
-4470 4489 0
-4213 -4470 4471 0
-4471 4490 0
-4214 -4471 4472 0
-4472 4491 0
-4217 -4472 4473 0
-4473 4492 0
-4218 -4473 0
4216 4474 0
-4474 4493 0
4219 -4474 4475 0
-4475 4494 0
4220 -4475 4476 0
-4476 4495 0
4223 -4476 4477 0
-4477 4496 0
4224 -4477 4478 0
-4478 4497 0
-4193 -4478 4479 0
-4479 4498 0
-4194 -4479 4480 0
-4480 4499 0
-4197 -4480 4481 0
-4481 4500 0
-4198 -4481 4482 0
-4482 4501 0
-4201 -4482 4483 0
-4483 4502 0
-4202 -4483 4484 0
-4484 4503 0
-4205 -4484 4485 0
-4485 4504 0
-4206 -4485 4486 0
-4486 4505 0
-4209 -4486 4487 0
-4487 4506 0
-4210 -4487 4488 0
-4488 4507 0
-4213 -4488 4489 0
-4489 4508 0
-4214 -4489 4490 0
-4490 4509 0
-4217 -4490 4491 0
-4491 4510 0
-4218 -4491 4492 0
-4492 4511 0
-4221 -4492 0
4219 4493 0
-4493 4512 0
4220 -4493 4494 0
-4494 4513 0
4223 -4494 4495 0
-4495 4514 0
4224 -4495 4496 0
-4496 4515 0
-4193 -4496 4497 0
-4497 4516 0
-4194 -4497 4498 0
-4498 4517 0
-4197 -4498 4499 0
-4499 4518 0
-4198 -4499 4500 0
-4500 4519 0
-4201 -4500 4501 0
-4501 4520 0
-4202 -4501 4502 0
-4502 4521 0
-4205 -4502 4503 0
-4503 4522 0
-4206 -4503 4504 0
-4504 4523 0
-4209 -4504 4505 0
-4505 4524 0
-4210 -4505 4506 0
-4506 4525 0
-4213 -4506 4507 0
-4507 4526 0
-4214 -4507 4508 0
-4508 4527 0
-4217 -4508 4509 0
-4509 4528 0
-4218 -4509 4510 0
-4510 4529 0
-4221 -4510 4511 0
-4511 4530 0
-4222 -4511 0
4220 4512 0
-4512 4531 0
4223 -4512 4513 0
-4513 4532 0
4224 -4513 4514 0
-4514 4533 0
-4193 -4514 4515 0
-4515 4534 0
-4194 -4515 4516 0
-4516 4535 0
-4197 -4516 4517 0
-4517 4536 0
-4198 -4517 4518 0
-4518 4537 0
-4201 -4518 4519 0
-4519 4538 0
-4202 -4519 4520 0
-4520 4539 0
-4205 -4520 4521 0
-4521 4540 0
-4206 -4521 4522 0
-4522 4541 0
-4209 -4522 4523 0
-4523 4542 0
-4210 -4523 4524 0
-4524 4543 0
-4213 -4524 4525 0
-4525 4544 0
-4214 -4525 4526 0
-4526 4545 0
-4217 -4526 4527 0
-4527 4546 0
-4218 -4527 4528 0
-4528 4547 0
-4221 -4528 4529 0
-4529 4548 0
-4222 -4529 4530 0
-4530 4549 0
-4225 -4530 0
4223 4531 0
4224 -4531 4532 0
-4193 -4532 4533 0
-4194 -4533 4534 0
-4197 -4534 4535 0
-4198 -4535 4536 0
-4201 -4536 4537 0
-4202 -4537 4538 0
-4205 -4538 4539 0
-4206 -4539 4540 0
-4209 -4540 4541 0
-4210 -4541 4542 0
-4213 -4542 4543 0
-4214 -4543 4544 0
-4217 -4544 4545 0
-4218 -4545 4546 0
-4221 -4546 4547 0
-4222 -4547 4548 0
-4225 -4548 4549 0
-4226 -4549 0
-4191 4550 0
-4550 4551 0
-4192 -4550 4552 0
-4552 4553 0
-4195 -4552 4554 0
-4554 4555 0
-4196 -4554 4556 0
-4556 4557 0
-4199 -4556 4558 0
-4558 4559 0
-4200 -4558 4560 0
-4560 4561 0
-4203 -4560 4562 0
-4562 4563 0
-4204 -4562 4564 0
-4564 4565 0
-4207 -4564 4566 0
-4566 4567 0
-4208 -4566 4568 0
-4568 4569 0
-4211 -4568 4570 0
-4570 4571 0
-4212 -4570 4572 0
-4572 4573 0
-4215 -4572 4574 0
-4574 4575 0
-4216 -4574 4576 0
-4576 4577 0
-4219 -4576 4578 0
-4578 4579 0
-4220 -4578 4580 0
-4580 4581 0
-4223 -4580 4582 0
-4582 4583 0
-4224 -4582 0
-4192 4551 0
-4551 4584 0
-4195 -4551 4553 0
-4553 4585 0
-4196 -4553 4555 0
-4555 4586 0
-4199 -4555 4557 0
-4557 4587 0
-4200 -4557 4559 0
-4559 4588 0
-4203 -4559 4561 0
-4561 4589 0
-4204 -4561 4563 0
-4563 4590 0
-4207 -4563 4565 0
-4565 4591 0
-4208 -4565 4567 0
-4567 4592 0
-4211 -4567 4569 0
-4569 4593 0
-4212 -4569 4571 0
-4571 4594 0
-4215 -4571 4573 0
-4573 4595 0
-4216 -4573 4575 0
-4575 4596 0
-4219 -4575 4577 0
-4577 4597 0
-4220 -4577 4579 0
-4579 4598 0
-4223 -4579 4581 0
-4581 4599 0
-4224 -4581 4583 0
-4583 4600 0
4193 -4583 0
-4195 4584 0
-4584 4601 0
-4196 -4584 4585 0
-4585 4602 0
-4199 -4585 4586 0
-4586 4603 0
-4200 -4586 4587 0
-4587 4604 0
-4203 -4587 4588 0
-4588 4605 0
-4204 -4588 4589 0
-4589 4606 0
-4207 -4589 4590 0
-4590 4607 0
-4208 -4590 4591 0
-4591 4608 0
-4211 -4591 4592 0
-4592 4609 0
-4212 -4592 4593 0
-4593 4610 0
-4215 -4593 4594 0
-4594 4611 0
-4216 -4594 4595 0
-4595 4612 0
-4219 -4595 4596 0
-4596 4613 0
-4220 -4596 4597 0
-4597 4614 0
-4223 -4597 4598 0
-4598 4615 0
-4224 -4598 4599 0
-4599 4616 0
4193 -4599 4600 0
-4600 4617 0
4194 -4600 0
-4196 4601 0
-4601 4618 0
-4199 -4601 4602 0
-4602 4619 0
-4200 -4602 4603 0
-4603 4620 0
-4203 -4603 4604 0
-4604 4621 0
-4204 -4604 4605 0
-4605 4622 0
-4207 -4605 4606 0
-4606 4623 0
-4208 -4606 4607 0
-4607 4624 0
-4211 -4607 4608 0
-4608 4625 0
-4212 -4608 4609 0
-4609 4626 0
-4215 -4609 4610 0
-4610 4627 0
-4216 -4610 4611 0
-4611 4628 0
-4219 -4611 4612 0
-4612 4629 0
-4220 -4612 4613 0
-4613 4630 0
-4223 -4613 4614 0
-4614 4631 0
-4224 -4614 4615 0
-4615 4632 0
4193 -4615 4616 0
-4616 4633 0
4194 -4616 4617 0
-4617 4634 0
4197 -4617 0
-4199 4618 0
-4618 4635 0
-4200 -4618 4619 0
-4619 4636 0
-4203 -4619 4620 0
-4620 4637 0
-4204 -4620 4621 0
-4621 4638 0
-4207 -4621 4622 0
-4622 4639 0
-4208 -4622 4623 0
-4623 4640 0
-4211 -4623 4624 0
-4624 4641 0
-4212 -4624 4625 0
-4625 4642 0
-4215 -4625 4626 0
-4626 4643 0
-4216 -4626 4627 0
-4627 4644 0
-4219 -4627 4628 0
-4628 4645 0
-4220 -4628 4629 0
-4629 4646 0
-4223 -4629 4630 0
-4630 4647 0
-4224 -4630 4631 0
-4631 4648 0
4193 -4631 4632 0
-4632 4649 0
4194 -4632 4633 0
-4633 4650 0
4197 -4633 4634 0
-4634 4651 0
4198 -4634 0
-4200 4635 0
-4635 4652 0
-4203 -4635 4636 0
-4636 4653 0
-4204 -4636 4637 0
-4637 4654 0
-4207 -4637 4638 0
-4638 4655 0
-4208 -4638 4639 0
-4639 4656 0
-4211 -4639 4640 0
-4640 4657 0
-4212 -4640 4641 0
-4641 4658 0
-4215 -4641 4642 0
-4642 4659 0
-4216 -4642 4643 0
-4643 4660 0
-4219 -4643 4644 0
-4644 4661 0
-4220 -4644 4645 0
-4645 4662 0
-4223 -4645 4646 0
-4646 4663 0
-4224 -4646 4647 0
-4647 4664 0
4193 -4647 4648 0
-4648 4665 0
4194 -4648 4649 0
-4649 4666 0
4197 -4649 4650 0
-4650 4667 0
4198 -4650 4651 0
-4651 4668 0
4201 -4651 0
-4203 4652 0
-4652 4669 0
-4204 -4652 4653 0
-4653 4670 0
-4207 -4653 4654 0
-4654 4671 0
-4208 -4654 4655 0
-4655 4672 0
-4211 -4655 4656 0
-4656 4673 0
-4212 -4656 4657 0
-4657 4674 0
-4215 -4657 4658 0
-4658 4675 0
-4216 -4658 4659 0
-4659 4676 0
-4219 -4659 4660 0
-4660 4677 0
-4220 -4660 4661 0
-4661 4678 0
-4223 -4661 4662 0
-4662 4679 0
-4224 -4662 4663 0
-4663 4680 0
4193 -4663 4664 0
-4664 4681 0
4194 -4664 4665 0
-4665 4682 0
4197 -4665 4666 0
-4666 4683 0
4198 -4666 4667 0
-4667 4684 0
4201 -4667 4668 0
-4668 4685 0
4202 -4668 0
-4204 4669 0
-4669 4686 0
-4207 -4669 4670 0
-4670 4687 0
-4208 -4670 4671 0
-4671 4688 0
-4211 -4671 4672 0
-4672 4689 0
-4212 -4672 4673 0
-4673 4690 0
-4215 -4673 4674 0
-4674 4691 0
-4216 -4674 4675 0
-4675 4692 0
-4219 -4675 4676 0
-4676 4693 0
-4220 -4676 4677 0
-4677 4694 0
-4223 -4677 4678 0
-4678 4695 0
-4224 -4678 4679 0
-4679 4696 0
4193 -4679 4680 0
-4680 4697 0
4194 -4680 4681 0
-4681 4698 0
4197 -4681 4682 0
-4682 4699 0
4198 -4682 4683 0
-4683 4700 0
4201 -4683 4684 0
-4684 4701 0
4202 -4684 4685 0
-4685 4702 0
4205 -4685 0
-4207 4686 0
-4686 4703 0
-4208 -4686 4687 0
-4687 4704 0
-4211 -4687 4688 0
-4688 4705 0
-4212 -4688 4689 0
-4689 4706 0
-4215 -4689 4690 0
-4690 4707 0
-4216 -4690 4691 0
-4691 4708 0
-4219 -4691 4692 0
-4692 4709 0
-4220 -4692 4693 0
-4693 4710 0
-4223 -4693 4694 0
-4694 4711 0
-4224 -4694 4695 0
-4695 4712 0
4193 -4695 4696 0
-4696 4713 0
4194 -4696 4697 0
-4697 4714 0
4197 -4697 4698 0
-4698 4715 0
4198 -4698 4699 0
-4699 4716 0
4201 -4699 4700 0
-4700 4717 0
4202 -4700 4701 0
-4701 4718 0
4205 -4701 4702 0
-4702 4719 0
4206 -4702 0
-4208 4703 0
-4703 4720 0
-4211 -4703 4704 0
-4704 4721 0
-4212 -4704 4705 0
-4705 4722 0
-4215 -4705 4706 0
-4706 4723 0
-4216 -4706 4707 0
-4707 4724 0
-4219 -4707 4708 0
-4708 4725 0
-4220 -4708 4709 0
-4709 4726 0
-4223 -4709 4710 0
-4710 4727 0
-4224 -4710 4711 0
-4711 4728 0
4193 -4711 4712 0
-4712 4729 0
4194 -4712 4713 0
-4713 4730 0
4197 -4713 4714 0
-4714 4731 0
4198 -4714 4715 0
-4715 4732 0
4201 -4715 4716 0
-4716 4733 0
4202 -4716 4717 0
-4717 4734 0
4205 -4717 4718 0
-4718 4735 0
4206 -4718 4719 0
-4719 4736 0
4209 -4719 0
-4211 4720 0
-4720 4737 0
-4212 -4720 4721 0
-4721 4738 0
-4215 -4721 4722 0
-4722 4739 0
-4216 -4722 4723 0
-4723 4740 0
-4219 -4723 4724 0
-4724 4741 0
-4220 -4724 4725 0
-4725 4742 0
-4223 -4725 4726 0
-4726 4743 0
-4224 -4726 4727 0
-4727 4744 0
4193 -4727 4728 0
-4728 4745 0
4194 -4728 4729 0
-4729 4746 0
4197 -4729 4730 0
-4730 4747 0
4198 -4730 4731 0
-4731 4748 0
4201 -4731 4732 0
-4732 4749 0
4202 -4732 4733 0
-4733 4750 0
4205 -4733 4734 0
-4734 4751 0
4206 -4734 4735 0
-4735 4752 0
4209 -4735 4736 0
-4736 4753 0
4210 -4736 0
-4212 4737 0
-4737 4754 0
-4215 -4737 4738 0
-4738 4755 0
-4216 -4738 4739 0
-4739 4756 0
-4219 -4739 4740 0
-4740 4757 0
-4220 -4740 4741 0
-4741 4758 0
-4223 -4741 4742 0
-4742 4759 0
-4224 -4742 4743 0
-4743 4760 0
4193 -4743 4744 0
-4744 4761 0
4194 -4744 4745 0
-4745 4762 0
4197 -4745 4746 0
-4746 4763 0
4198 -4746 4747 0
-4747 4764 0
4201 -4747 4748 0
-4748 4765 0
4202 -4748 4749 0
-4749 4766 0
4205 -4749 4750 0
-4750 4767 0
4206 -4750 4751 0
-4751 4768 0
4209 -4751 4752 0
-4752 4769 0
4210 -4752 4753 0
-4753 4770 0
4213 -4753 0
-4215 4754 0
-4754 4771 0
-4216 -4754 4755 0
-4755 4772 0
-4219 -4755 4756 0
-4756 4773 0
-4220 -4756 4757 0
-4757 4774 0
-4223 -4757 4758 0
-4758 4775 0
-4224 -4758 4759 0
-4759 4776 0
4193 -4759 4760 0
-4760 4777 0
4194 -4760 4761 0
-4761 4778 0
4197 -4761 4762 0
-4762 4779 0
4198 -4762 4763 0
-4763 4780 0
4201 -4763 4764 0
-4764 4781 0
4202 -4764 4765 0
-4765 4782 0
4205 -4765 4766 0
-4766 4783 0
4206 -4766 4767 0
-4767 4784 0
4209 -4767 4768 0
-4768 4785 0
4210 -4768 4769 0
-4769 4786 0
4213 -4769 4770 0
-4770 4787 0
4214 -4770 0
-4216 4771 0
-4771 4788 0
-4219 -4771 4772 0
-4772 4789 0
-4220 -4772 4773 0
-4773 4790 0
-4223 -4773 4774 0
-4774 4791 0
-4224 -4774 4775 0
-4775 4792 0
4193 -4775 4776 0
-4776 4793 0
4194 -4776 4777 0
-4777 4794 0
4197 -4777 4778 0
-4778 4795 0
4198 -4778 4779 0
-4779 4796 0
4201 -4779 4780 0
-4780 4797 0
4202 -4780 4781 0
-4781 4798 0
4205 -4781 4782 0
-4782 4799 0
4206 -4782 4783 0
-4783 4800 0
4209 -4783 4784 0
-4784 4801 0
4210 -4784 4785 0
-4785 4802 0
4213 -4785 4786 0
-4786 4803 0
4214 -4786 4787 0
-4787 4804 0
4217 -4787 0
-4219 4788 0
-4788 4805 0
-4220 -4788 4789 0
-4789 4806 0
-4223 -4789 4790 0
-4790 4807 0
-4224 -4790 4791 0
-4791 4808 0
4193 -4791 4792 0
-4792 4809 0
4194 -4792 4793 0
-4793 4810 0
4197 -4793 4794 0
-4794 4811 0
4198 -4794 4795 0
-4795 4812 0
4201 -4795 4796 0
-4796 4813 0
4202 -4796 4797 0
-4797 4814 0
4205 -4797 4798 0
-4798 4815 0
4206 -4798 4799 0
-4799 4816 0
4209 -4799 4800 0
-4800 4817 0
4210 -4800 4801 0
-4801 4818 0
4213 -4801 4802 0
-4802 4819 0
4214 -4802 4803 0
-4803 4820 0
4217 -4803 4804 0
-4804 4821 0
4218 -4804 0
-4220 4805 0
-4805 4822 0
-4223 -4805 4806 0
-4806 4823 0
-4224 -4806 4807 0
-4807 4824 0
4193 -4807 4808 0
-4808 4825 0
4194 -4808 4809 0
-4809 4826 0
4197 -4809 4810 0
-4810 4827 0
4198 -4810 4811 0
-4811 4828 0
4201 -4811 4812 0
-4812 4829 0
4202 -4812 4813 0
-4813 4830 0
4205 -4813 4814 0
-4814 4831 0
4206 -4814 4815 0
-4815 4832 0
4209 -4815 4816 0
-4816 4833 0
4210 -4816 4817 0
-4817 4834 0
4213 -4817 4818 0
-4818 4835 0
4214 -4818 4819 0
-4819 4836 0
4217 -4819 4820 0
-4820 4837 0
4218 -4820 4821 0
-4821 4838 0
4221 -4821 0
-4223 4822 0
-4822 4839 0
-4224 -4822 4823 0
-4823 4840 0
4193 -4823 4824 0
-4824 4841 0
4194 -4824 4825 0
-4825 4842 0
4197 -4825 4826 0
-4826 4843 0
4198 -4826 4827 0
-4827 4844 0
4201 -4827 4828 0
-4828 4845 0
4202 -4828 4829 0
-4829 4846 0
4205 -4829 4830 0
-4830 4847 0
4206 -4830 4831 0
-4831 4848 0
4209 -4831 4832 0
-4832 4849 0
4210 -4832 4833 0
-4833 4850 0
4213 -4833 4834 0
-4834 4851 0
4214 -4834 4835 0
-4835 4852 0
4217 -4835 4836 0
-4836 4853 0
4218 -4836 4837 0
-4837 4854 0
4221 -4837 4838 0
-4838 4855 0
4222 -4838 0
-4224 4839 0
-4839 4856 0
4193 -4839 4840 0
-4840 4857 0
4194 -4840 4841 0
-4841 4858 0
4197 -4841 4842 0
-4842 4859 0
4198 -4842 4843 0
-4843 4860 0
4201 -4843 4844 0
-4844 4861 0
4202 -4844 4845 0
-4845 4862 0
4205 -4845 4846 0
-4846 4863 0
4206 -4846 4847 0
-4847 4864 0
4209 -4847 4848 0
-4848 4865 0
4210 -4848 4849 0
-4849 4866 0
4213 -4849 4850 0
-4850 4867 0
4214 -4850 4851 0
-4851 4868 0
4217 -4851 4852 0
-4852 4869 0
4218 -4852 4853 0
-4853 4870 0
4221 -4853 4854 0
-4854 4871 0
4222 -4854 4855 0
-4855 4872 0
4225 -4855 0
4193 4856 0
4194 -4856 4857 0
4197 -4857 4858 0
4198 -4858 4859 0
4201 -4859 4860 0
4202 -4860 4861 0
4205 -4861 4862 0
4206 -4862 4863 0
4209 -4863 4864 0
4210 -4864 4865 0
4213 -4865 4866 0
4214 -4866 4867 0
4217 -4867 4868 0
4218 -4868 4869 0
4221 -4869 4870 0
4222 -4870 4871 0
4225 -4871 4872 0
4226 -4872 0
-4873 1 0
-4873 5 0
4873 -1 -5 0
-4874 10 0
-4874 14 0
4874 -10 -14 0
-4875 1 0
-4875 14 0
4875 -1 -14 0
-4876 10 0
-4876 5 0
4876 -10 -5 0
-4877 2 0
-4877 6 0
4877 -2 -6 0
-4878 11 0
-4878 15 0
4878 -11 -15 0
-4879 2 0
-4879 15 0
4879 -2 -15 0
-4880 11 0
-4880 6 0
4880 -11 -6 0
-4881 3 0
-4881 4 0
4881 -3 -4 0
-4882 12 0
-4882 13 0
4882 -12 -13 0
-4883 3 0
-4883 13 0
4883 -3 -13 0
-4884 12 0
-4884 4 0
4884 -12 -4 0
-4885 4 0
-4885 8 0
4885 -4 -8 0
-4886 13 0
-4886 17 0
4886 -13 -17 0
-4887 4 0
-4887 17 0
4887 -4 -17 0
-4888 13 0
-4888 8 0
4888 -13 -8 0
-4889 5 0
-4889 9 0
4889 -5 -9 0
-4890 14 0
-4890 18 0
4890 -14 -18 0
-4891 5 0
-4891 18 0
4891 -5 -18 0
-4892 14 0
-4892 9 0
4892 -14 -9 0
-4893 6 0
-4893 7 0
4893 -6 -7 0
-4894 15 0
-4894 16 0
4894 -15 -16 0
-4895 6 0
-4895 16 0
4895 -6 -16 0
-4896 15 0
-4896 7 0
4896 -15 -7 0
-4897 7 0
-4897 2 0
4897 -7 -2 0
-4898 16 0
-4898 11 0
4898 -16 -11 0
-4899 7 0
-4899 11 0
4899 -7 -11 0
-4900 16 0
-4900 2 0
4900 -16 -2 0
-4901 8 0
-4901 3 0
4901 -8 -3 0
-4902 17 0
-4902 12 0
4902 -17 -12 0
-4903 8 0
-4903 12 0
4903 -8 -12 0
-4904 17 0
-4904 3 0
4904 -17 -3 0
-4905 9 0
-4905 1 0
4905 -9 -1 0
-4906 18 0
-4906 10 0
4906 -18 -10 0
-4907 9 0
-4907 10 0
4907 -9 -10 0
-4908 18 0
-4908 1 0
4908 -18 -1 0
4873 4909 0
-4909 4910 0
4874 -4909 4911 0
-4911 4912 0
4877 -4911 4913 0
-4913 4914 0
4878 -4913 4915 0
-4915 4916 0
4881 -4915 4917 0
-4917 4918 0
4882 -4917 4919 0
-4919 4920 0
4885 -4919 4921 0
-4921 4922 0
4886 -4921 4923 0
-4923 4924 0
4889 -4923 4925 0
-4925 4926 0
4890 -4925 4927 0
-4927 4928 0
4893 -4927 4929 0
-4929 4930 0
4894 -4929 4931 0
-4931 4932 0
4897 -4931 4933 0
-4933 4934 0
4898 -4933 4935 0
-4935 4936 0
4901 -4935 4937 0
-4937 4938 0
4902 -4937 4939 0
-4939 4940 0
4905 -4939 4941 0
-4941 4942 0
4906 -4941 4943 0
-4943 4944 0
-4875 -4943 4945 0
-4945 4946 0
-4876 -4945 0
4874 4910 0
-4910 4947 0
4877 -4910 4912 0
-4912 4948 0
4878 -4912 4914 0
-4914 4949 0
4881 -4914 4916 0
-4916 4950 0
4882 -4916 4918 0
-4918 4951 0
4885 -4918 4920 0
-4920 4952 0
4886 -4920 4922 0
-4922 4953 0
4889 -4922 4924 0
-4924 4954 0
4890 -4924 4926 0
-4926 4955 0
4893 -4926 4928 0
-4928 4956 0
4894 -4928 4930 0
-4930 4957 0
4897 -4930 4932 0
-4932 4958 0
4898 -4932 4934 0
-4934 4959 0
4901 -4934 4936 0
-4936 4960 0
4902 -4936 4938 0
-4938 4961 0
4905 -4938 4940 0
-4940 4962 0
4906 -4940 4942 0
-4942 4963 0
-4875 -4942 4944 0
-4944 4964 0
-4876 -4944 4946 0
-4946 4965 0
-4879 -4946 0
4877 4947 0
-4947 4966 0
4878 -4947 4948 0
-4948 4967 0
4881 -4948 4949 0
-4949 4968 0
4882 -4949 4950 0
-4950 4969 0
4885 -4950 4951 0
-4951 4970 0
4886 -4951 4952 0
-4952 4971 0
4889 -4952 4953 0
-4953 4972 0
4890 -4953 4954 0
-4954 4973 0
4893 -4954 4955 0
-4955 4974 0
4894 -4955 4956 0
-4956 4975 0
4897 -4956 4957 0
-4957 4976 0
4898 -4957 4958 0
-4958 4977 0
4901 -4958 4959 0
-4959 4978 0
4902 -4959 4960 0
-4960 4979 0
4905 -4960 4961 0
-4961 4980 0
4906 -4961 4962 0
-4962 4981 0
-4875 -4962 4963 0
-4963 4982 0
-4876 -4963 4964 0
-4964 4983 0
-4879 -4964 4965 0
-4965 4984 0
-4880 -4965 0
4878 4966 0
-4966 4985 0
4881 -4966 4967 0
-4967 4986 0
4882 -4967 4968 0
-4968 4987 0
4885 -4968 4969 0
-4969 4988 0
4886 -4969 4970 0
-4970 4989 0
4889 -4970 4971 0
-4971 4990 0
4890 -4971 4972 0
-4972 4991 0
4893 -4972 4973 0
-4973 4992 0
4894 -4973 4974 0
-4974 4993 0
4897 -4974 4975 0
-4975 4994 0
4898 -4975 4976 0
-4976 4995 0
4901 -4976 4977 0
-4977 4996 0
4902 -4977 4978 0
-4978 4997 0
4905 -4978 4979 0
-4979 4998 0
4906 -4979 4980 0
-4980 4999 0
-4875 -4980 4981 0
-4981 5000 0
-4876 -4981 4982 0
-4982 5001 0
-4879 -4982 4983 0
-4983 5002 0
-4880 -4983 4984 0
-4984 5003 0
-4883 -4984 0
4881 4985 0
-4985 5004 0
4882 -4985 4986 0
-4986 5005 0
4885 -4986 4987 0
-4987 5006 0
4886 -4987 4988 0
-4988 5007 0
4889 -4988 4989 0
-4989 5008 0
4890 -4989 4990 0
-4990 5009 0
4893 -4990 4991 0
-4991 5010 0
4894 -4991 4992 0
-4992 5011 0
4897 -4992 4993 0
-4993 5012 0
4898 -4993 4994 0
-4994 5013 0
4901 -4994 4995 0
-4995 5014 0
4902 -4995 4996 0
-4996 5015 0
4905 -4996 4997 0
-4997 5016 0
4906 -4997 4998 0
-4998 5017 0
-4875 -4998 4999 0
-4999 5018 0
-4876 -4999 5000 0
-5000 5019 0
-4879 -5000 5001 0
-5001 5020 0
-4880 -5001 5002 0
-5002 5021 0
-4883 -5002 5003 0
-5003 5022 0
-4884 -5003 0
4882 5004 0
-5004 5023 0
4885 -5004 5005 0
-5005 5024 0
4886 -5005 5006 0
-5006 5025 0
4889 -5006 5007 0
-5007 5026 0
4890 -5007 5008 0
-5008 5027 0
4893 -5008 5009 0
-5009 5028 0
4894 -5009 5010 0
-5010 5029 0
4897 -5010 5011 0
-5011 5030 0
4898 -5011 5012 0
-5012 5031 0
4901 -5012 5013 0
-5013 5032 0
4902 -5013 5014 0
-5014 5033 0
4905 -5014 5015 0
-5015 5034 0
4906 -5015 5016 0
-5016 5035 0
-4875 -5016 5017 0
-5017 5036 0
-4876 -5017 5018 0
-5018 5037 0
-4879 -5018 5019 0
-5019 5038 0
-4880 -5019 5020 0
-5020 5039 0
-4883 -5020 5021 0
-5021 5040 0
-4884 -5021 5022 0
-5022 5041 0
-4887 -5022 0
4885 5023 0
-5023 5042 0
4886 -5023 5024 0
-5024 5043 0
4889 -5024 5025 0
-5025 5044 0
4890 -5025 5026 0
-5026 5045 0
4893 -5026 5027 0
-5027 5046 0
4894 -5027 5028 0
-5028 5047 0
4897 -5028 5029 0
-5029 5048 0
4898 -5029 5030 0
-5030 5049 0
4901 -5030 5031 0
-5031 5050 0
4902 -5031 5032 0
-5032 5051 0
4905 -5032 5033 0
-5033 5052 0
4906 -5033 5034 0
-5034 5053 0
-4875 -5034 5035 0
-5035 5054 0
-4876 -5035 5036 0
-5036 5055 0
-4879 -5036 5037 0
-5037 5056 0
-4880 -5037 5038 0
-5038 5057 0
-4883 -5038 5039 0
-5039 5058 0
-4884 -5039 5040 0
-5040 5059 0
-4887 -5040 5041 0
-5041 5060 0
-4888 -5041 0
4886 5042 0
-5042 5061 0
4889 -5042 5043 0
-5043 5062 0
4890 -5043 5044 0
-5044 5063 0
4893 -5044 5045 0
-5045 5064 0
4894 -5045 5046 0
-5046 5065 0
4897 -5046 5047 0
-5047 5066 0
4898 -5047 5048 0
-5048 5067 0
4901 -5048 5049 0
-5049 5068 0
4902 -5049 5050 0
-5050 5069 0
4905 -5050 5051 0
-5051 5070 0
4906 -5051 5052 0
-5052 5071 0
-4875 -5052 5053 0
-5053 5072 0
-4876 -5053 5054 0
-5054 5073 0
-4879 -5054 5055 0
-5055 5074 0
-4880 -5055 5056 0
-5056 5075 0
-4883 -5056 5057 0
-5057 5076 0
-4884 -5057 5058 0
-5058 5077 0
-4887 -5058 5059 0
-5059 5078 0
-4888 -5059 5060 0
-5060 5079 0
-4891 -5060 0
4889 5061 0
-5061 5080 0
4890 -5061 5062 0
-5062 5081 0
4893 -5062 5063 0
-5063 5082 0
4894 -5063 5064 0
-5064 5083 0
4897 -5064 5065 0
-5065 5084 0
4898 -5065 5066 0
-5066 5085 0
4901 -5066 5067 0
-5067 5086 0
4902 -5067 5068 0
-5068 5087 0
4905 -5068 5069 0
-5069 5088 0
4906 -5069 5070 0
-5070 5089 0
-4875 -5070 5071 0
-5071 5090 0
-4876 -5071 5072 0
-5072 5091 0
-4879 -5072 5073 0
-5073 5092 0
-4880 -5073 5074 0
-5074 5093 0
-4883 -5074 5075 0
-5075 5094 0
-4884 -5075 5076 0
-5076 5095 0
-4887 -5076 5077 0
-5077 5096 0
-4888 -5077 5078 0
-5078 5097 0
-4891 -5078 5079 0
-5079 5098 0
-4892 -5079 0
4890 5080 0
-5080 5099 0
4893 -5080 5081 0
-5081 5100 0
4894 -5081 5082 0
-5082 5101 0
4897 -5082 5083 0
-5083 5102 0
4898 -5083 5084 0
-5084 5103 0
4901 -5084 5085 0
-5085 5104 0
4902 -5085 5086 0
-5086 5105 0
4905 -5086 5087 0
-5087 5106 0
4906 -5087 5088 0
-5088 5107 0
-4875 -5088 5089 0
-5089 5108 0
-4876 -5089 5090 0
-5090 5109 0
-4879 -5090 5091 0
-5091 5110 0
-4880 -5091 5092 0
-5092 5111 0
-4883 -5092 5093 0
-5093 5112 0
-4884 -5093 5094 0
-5094 5113 0
-4887 -5094 5095 0
-5095 5114 0
-4888 -5095 5096 0
-5096 5115 0
-4891 -5096 5097 0
-5097 5116 0
-4892 -5097 5098 0
-5098 5117 0
-4895 -5098 0
4893 5099 0
-5099 5118 0
4894 -5099 5100 0
-5100 5119 0
4897 -5100 5101 0
-5101 5120 0
4898 -5101 5102 0
-5102 5121 0
4901 -5102 5103 0
-5103 5122 0
4902 -5103 5104 0
-5104 5123 0
4905 -5104 5105 0
-5105 5124 0
4906 -5105 5106 0
-5106 5125 0
-4875 -5106 5107 0
-5107 5126 0
-4876 -5107 5108 0
-5108 5127 0
-4879 -5108 5109 0
-5109 5128 0
-4880 -5109 5110 0
-5110 5129 0
-4883 -5110 5111 0
-5111 5130 0
-4884 -5111 5112 0
-5112 5131 0
-4887 -5112 5113 0
-5113 5132 0
-4888 -5113 5114 0
-5114 5133 0
-4891 -5114 5115 0
-5115 5134 0
-4892 -5115 5116 0
-5116 5135 0
-4895 -5116 5117 0
-5117 5136 0
-4896 -5117 0
4894 5118 0
-5118 5137 0
4897 -5118 5119 0
-5119 5138 0
4898 -5119 5120 0
-5120 5139 0
4901 -5120 5121 0
-5121 5140 0
4902 -5121 5122 0
-5122 5141 0
4905 -5122 5123 0
-5123 5142 0
4906 -5123 5124 0
-5124 5143 0
-4875 -5124 5125 0
-5125 5144 0
-4876 -5125 5126 0
-5126 5145 0
-4879 -5126 5127 0
-5127 5146 0
-4880 -5127 5128 0
-5128 5147 0
-4883 -5128 5129 0
-5129 5148 0
-4884 -5129 5130 0
-5130 5149 0
-4887 -5130 5131 0
-5131 5150 0
-4888 -5131 5132 0
-5132 5151 0
-4891 -5132 5133 0
-5133 5152 0
-4892 -5133 5134 0
-5134 5153 0
-4895 -5134 5135 0
-5135 5154 0
-4896 -5135 5136 0
-5136 5155 0
-4899 -5136 0
4897 5137 0
-5137 5156 0
4898 -5137 5138 0
-5138 5157 0
4901 -5138 5139 0
-5139 5158 0
4902 -5139 5140 0
-5140 5159 0
4905 -5140 5141 0
-5141 5160 0
4906 -5141 5142 0
-5142 5161 0
-4875 -5142 5143 0
-5143 5162 0
-4876 -5143 5144 0
-5144 5163 0
-4879 -5144 5145 0
-5145 5164 0
-4880 -5145 5146 0
-5146 5165 0
-4883 -5146 5147 0
-5147 5166 0
-4884 -5147 5148 0
-5148 5167 0
-4887 -5148 5149 0
-5149 5168 0
-4888 -5149 5150 0
-5150 5169 0
-4891 -5150 5151 0
-5151 5170 0
-4892 -5151 5152 0
-5152 5171 0
-4895 -5152 5153 0
-5153 5172 0
-4896 -5153 5154 0
-5154 5173 0
-4899 -5154 5155 0
-5155 5174 0
-4900 -5155 0
4898 5156 0
-5156 5175 0
4901 -5156 5157 0
-5157 5176 0
4902 -5157 5158 0
-5158 5177 0
4905 -5158 5159 0
-5159 5178 0
4906 -5159 5160 0
-5160 5179 0
-4875 -5160 5161 0
-5161 5180 0
-4876 -5161 5162 0
-5162 5181 0
-4879 -5162 5163 0
-5163 5182 0
-4880 -5163 5164 0
-5164 5183 0
-4883 -5164 5165 0
-5165 5184 0
-4884 -5165 5166 0
-5166 5185 0
-4887 -5166 5167 0
-5167 5186 0
-4888 -5167 5168 0
-5168 5187 0
-4891 -5168 5169 0
-5169 5188 0
-4892 -5169 5170 0
-5170 5189 0
-4895 -5170 5171 0
-5171 5190 0
-4896 -5171 5172 0
-5172 5191 0
-4899 -5172 5173 0
-5173 5192 0
-4900 -5173 5174 0
-5174 5193 0
-4903 -5174 0
4901 5175 0
-5175 5194 0
4902 -5175 5176 0
-5176 5195 0
4905 -5176 5177 0
-5177 5196 0
4906 -5177 5178 0
-5178 5197 0
-4875 -5178 5179 0
-5179 5198 0
-4876 -5179 5180 0
-5180 5199 0
-4879 -5180 5181 0
-5181 5200 0
-4880 -5181 5182 0
-5182 5201 0
-4883 -5182 5183 0
-5183 5202 0
-4884 -5183 5184 0
-5184 5203 0
-4887 -5184 5185 0
-5185 5204 0
-4888 -5185 5186 0
-5186 5205 0
-4891 -5186 5187 0
-5187 5206 0
-4892 -5187 5188 0
-5188 5207 0
-4895 -5188 5189 0
-5189 5208 0
-4896 -5189 5190 0
-5190 5209 0
-4899 -5190 5191 0
-5191 5210 0
-4900 -5191 5192 0
-5192 5211 0
-4903 -5192 5193 0
-5193 5212 0
-4904 -5193 0
4902 5194 0
-5194 5213 0
4905 -5194 5195 0
-5195 5214 0
4906 -5195 5196 0
-5196 5215 0
-4875 -5196 5197 0
-5197 5216 0
-4876 -5197 5198 0
-5198 5217 0
-4879 -5198 5199 0
-5199 5218 0
-4880 -5199 5200 0
-5200 5219 0
-4883 -5200 5201 0
-5201 5220 0
-4884 -5201 5202 0
-5202 5221 0
-4887 -5202 5203 0
-5203 5222 0
-4888 -5203 5204 0
-5204 5223 0
-4891 -5204 5205 0
-5205 5224 0
-4892 -5205 5206 0
-5206 5225 0
-4895 -5206 5207 0
-5207 5226 0
-4896 -5207 5208 0
-5208 5227 0
-4899 -5208 5209 0
-5209 5228 0
-4900 -5209 5210 0
-5210 5229 0
-4903 -5210 5211 0
-5211 5230 0
-4904 -5211 5212 0
-5212 5231 0
-4907 -5212 0
4905 5213 0
4906 -5213 5214 0
-4875 -5214 5215 0
-4876 -5215 5216 0
-4879 -5216 5217 0
-4880 -5217 5218 0
-4883 -5218 5219 0
-4884 -5219 5220 0
-4887 -5220 5221 0
-4888 -5221 5222 0
-4891 -5222 5223 0
-4892 -5223 5224 0
-4895 -5224 5225 0
-4896 -5225 5226 0
-4899 -5226 5227 0
-4900 -5227 5228 0
-4903 -5228 5229 0
-4904 -5229 5230 0
-4907 -5230 5231 0
-4908 -5231 0
-4873 5232 0
-5232 5233 0
-4874 -5232 5234 0
-5234 5235 0
-4877 -5234 5236 0
-5236 5237 0
-4878 -5236 5238 0
-5238 5239 0
-4881 -5238 5240 0
-5240 5241 0
-4882 -5240 5242 0
-5242 5243 0
-4885 -5242 5244 0
-5244 5245 0
-4886 -5244 5246 0
-5246 5247 0
-4889 -5246 5248 0
-5248 5249 0
-4890 -5248 5250 0
-5250 5251 0
-4893 -5250 5252 0
-5252 5253 0
-4894 -5252 5254 0
-5254 5255 0
-4897 -5254 5256 0
-5256 5257 0
-4898 -5256 5258 0
-5258 5259 0
-4901 -5258 5260 0
-5260 5261 0
-4902 -5260 5262 0
-5262 5263 0
-4905 -5262 5264 0
-5264 5265 0
-4906 -5264 0
-4874 5233 0
-5233 5266 0
-4877 -5233 5235 0
-5235 5267 0
-4878 -5235 5237 0
-5237 5268 0
-4881 -5237 5239 0
-5239 5269 0
-4882 -5239 5241 0
-5241 5270 0
-4885 -5241 5243 0
-5243 5271 0
-4886 -5243 5245 0
-5245 5272 0
-4889 -5245 5247 0
-5247 5273 0
-4890 -5247 5249 0
-5249 5274 0
-4893 -5249 5251 0
-5251 5275 0
-4894 -5251 5253 0
-5253 5276 0
-4897 -5253 5255 0
-5255 5277 0
-4898 -5255 5257 0
-5257 5278 0
-4901 -5257 5259 0
-5259 5279 0
-4902 -5259 5261 0
-5261 5280 0
-4905 -5261 5263 0
-5263 5281 0
-4906 -5263 5265 0
-5265 5282 0
4875 -5265 0
-4877 5266 0
-5266 5283 0
-4878 -5266 5267 0
-5267 5284 0
-4881 -5267 5268 0
-5268 5285 0
-4882 -5268 5269 0
-5269 5286 0
-4885 -5269 5270 0
-5270 5287 0
-4886 -5270 5271 0
-5271 5288 0
-4889 -5271 5272 0
-5272 5289 0
-4890 -5272 5273 0
-5273 5290 0
-4893 -5273 5274 0
-5274 5291 0
-4894 -5274 5275 0
-5275 5292 0
-4897 -5275 5276 0
-5276 5293 0
-4898 -5276 5277 0
-5277 5294 0
-4901 -5277 5278 0
-5278 5295 0
-4902 -5278 5279 0
-5279 5296 0
-4905 -5279 5280 0
-5280 5297 0
-4906 -5280 5281 0
-5281 5298 0
4875 -5281 5282 0
-5282 5299 0
4876 -5282 0
-4878 5283 0
-5283 5300 0
-4881 -5283 5284 0
-5284 5301 0
-4882 -5284 5285 0
-5285 5302 0
-4885 -5285 5286 0
-5286 5303 0
-4886 -5286 5287 0
-5287 5304 0
-4889 -5287 5288 0
-5288 5305 0
-4890 -5288 5289 0
-5289 5306 0
-4893 -5289 5290 0
-5290 5307 0
-4894 -5290 5291 0
-5291 5308 0
-4897 -5291 5292 0
-5292 5309 0
-4898 -5292 5293 0
-5293 5310 0
-4901 -5293 5294 0
-5294 5311 0
-4902 -5294 5295 0
-5295 5312 0
-4905 -5295 5296 0
-5296 5313 0
-4906 -5296 5297 0
-5297 5314 0
4875 -5297 5298 0
-5298 5315 0
4876 -5298 5299 0
-5299 5316 0
4879 -5299 0
-4881 5300 0
-5300 5317 0
-4882 -5300 5301 0
-5301 5318 0
-4885 -5301 5302 0
-5302 5319 0
-4886 -5302 5303 0
-5303 5320 0
-4889 -5303 5304 0
-5304 5321 0
-4890 -5304 5305 0
-5305 5322 0
-4893 -5305 5306 0
-5306 5323 0
-4894 -5306 5307 0
-5307 5324 0
-4897 -5307 5308 0
-5308 5325 0
-4898 -5308 5309 0
-5309 5326 0
-4901 -5309 5310 0
-5310 5327 0
-4902 -5310 5311 0
-5311 5328 0
-4905 -5311 5312 0
-5312 5329 0
-4906 -5312 5313 0
-5313 5330 0
4875 -5313 5314 0
-5314 5331 0
4876 -5314 5315 0
-5315 5332 0
4879 -5315 5316 0
-5316 5333 0
4880 -5316 0
-4882 5317 0
-5317 5334 0
-4885 -5317 5318 0
-5318 5335 0
-4886 -5318 5319 0
-5319 5336 0
-4889 -5319 5320 0
-5320 5337 0
-4890 -5320 5321 0
-5321 5338 0
-4893 -5321 5322 0
-5322 5339 0
-4894 -5322 5323 0
-5323 5340 0
-4897 -5323 5324 0
-5324 5341 0
-4898 -5324 5325 0
-5325 5342 0
-4901 -5325 5326 0
-5326 5343 0
-4902 -5326 5327 0
-5327 5344 0
-4905 -5327 5328 0
-5328 5345 0
-4906 -5328 5329 0
-5329 5346 0
4875 -5329 5330 0
-5330 5347 0
4876 -5330 5331 0
-5331 5348 0
4879 -5331 5332 0
-5332 5349 0
4880 -5332 5333 0
-5333 5350 0
4883 -5333 0
-4885 5334 0
-5334 5351 0
-4886 -5334 5335 0
-5335 5352 0
-4889 -5335 5336 0
-5336 5353 0
-4890 -5336 5337 0
-5337 5354 0
-4893 -5337 5338 0
-5338 5355 0
-4894 -5338 5339 0
-5339 5356 0
-4897 -5339 5340 0
-5340 5357 0
-4898 -5340 5341 0
-5341 5358 0
-4901 -5341 5342 0
-5342 5359 0
-4902 -5342 5343 0
-5343 5360 0
-4905 -5343 5344 0
-5344 5361 0
-4906 -5344 5345 0
-5345 5362 0
4875 -5345 5346 0
-5346 5363 0
4876 -5346 5347 0
-5347 5364 0
4879 -5347 5348 0
-5348 5365 0
4880 -5348 5349 0
-5349 5366 0
4883 -5349 5350 0
-5350 5367 0
4884 -5350 0
-4886 5351 0
-5351 5368 0
-4889 -5351 5352 0
-5352 5369 0
-4890 -5352 5353 0
-5353 5370 0
-4893 -5353 5354 0
-5354 5371 0
-4894 -5354 5355 0
-5355 5372 0
-4897 -5355 5356 0
-5356 5373 0
-4898 -5356 5357 0
-5357 5374 0
-4901 -5357 5358 0
-5358 5375 0
-4902 -5358 5359 0
-5359 5376 0
-4905 -5359 5360 0
-5360 5377 0
-4906 -5360 5361 0
-5361 5378 0
4875 -5361 5362 0
-5362 5379 0
4876 -5362 5363 0
-5363 5380 0
4879 -5363 5364 0
-5364 5381 0
4880 -5364 5365 0
-5365 5382 0
4883 -5365 5366 0
-5366 5383 0
4884 -5366 5367 0
-5367 5384 0
4887 -5367 0
-4889 5368 0
-5368 5385 0
-4890 -5368 5369 0
-5369 5386 0
-4893 -5369 5370 0
-5370 5387 0
-4894 -5370 5371 0
-5371 5388 0
-4897 -5371 5372 0
-5372 5389 0
-4898 -5372 5373 0
-5373 5390 0
-4901 -5373 5374 0
-5374 5391 0
-4902 -5374 5375 0
-5375 5392 0
-4905 -5375 5376 0
-5376 5393 0
-4906 -5376 5377 0
-5377 5394 0
4875 -5377 5378 0
-5378 5395 0
4876 -5378 5379 0
-5379 5396 0
4879 -5379 5380 0
-5380 5397 0
4880 -5380 5381 0
-5381 5398 0
4883 -5381 5382 0
-5382 5399 0
4884 -5382 5383 0
-5383 5400 0
4887 -5383 5384 0
-5384 5401 0
4888 -5384 0
-4890 5385 0
-5385 5402 0
-4893 -5385 5386 0
-5386 5403 0
-4894 -5386 5387 0
-5387 5404 0
-4897 -5387 5388 0
-5388 5405 0
-4898 -5388 5389 0
-5389 5406 0
-4901 -5389 5390 0
-5390 5407 0
-4902 -5390 5391 0
-5391 5408 0
-4905 -5391 5392 0
-5392 5409 0
-4906 -5392 5393 0
-5393 5410 0
4875 -5393 5394 0
-5394 5411 0
4876 -5394 5395 0
-5395 5412 0
4879 -5395 5396 0
-5396 5413 0
4880 -5396 5397 0
-5397 5414 0
4883 -5397 5398 0
-5398 5415 0
4884 -5398 5399 0
-5399 5416 0
4887 -5399 5400 0
-5400 5417 0
4888 -5400 5401 0
-5401 5418 0
4891 -5401 0
-4893 5402 0
-5402 5419 0
-4894 -5402 5403 0
-5403 5420 0
-4897 -5403 5404 0
-5404 5421 0
-4898 -5404 5405 0
-5405 5422 0
-4901 -5405 5406 0
-5406 5423 0
-4902 -5406 5407 0
-5407 5424 0
-4905 -5407 5408 0
-5408 5425 0
-4906 -5408 5409 0
-5409 5426 0
4875 -5409 5410 0
-5410 5427 0
4876 -5410 5411 0
-5411 5428 0
4879 -5411 5412 0
-5412 5429 0
4880 -5412 5413 0
-5413 5430 0
4883 -5413 5414 0
-5414 5431 0
4884 -5414 5415 0
-5415 5432 0
4887 -5415 5416 0
-5416 5433 0
4888 -5416 5417 0
-5417 5434 0
4891 -5417 5418 0
-5418 5435 0
4892 -5418 0
-4894 5419 0
-5419 5436 0
-4897 -5419 5420 0
-5420 5437 0
-4898 -5420 5421 0
-5421 5438 0
-4901 -5421 5422 0
-5422 5439 0
-4902 -5422 5423 0
-5423 5440 0
-4905 -5423 5424 0
-5424 5441 0
-4906 -5424 5425 0
-5425 5442 0
4875 -5425 5426 0
-5426 5443 0
4876 -5426 5427 0
-5427 5444 0
4879 -5427 5428 0
-5428 5445 0
4880 -5428 5429 0
-5429 5446 0
4883 -5429 5430 0
-5430 5447 0
4884 -5430 5431 0
-5431 5448 0
4887 -5431 5432 0
-5432 5449 0
4888 -5432 5433 0
-5433 5450 0
4891 -5433 5434 0
-5434 5451 0
4892 -5434 5435 0
-5435 5452 0
4895 -5435 0
-4897 5436 0
-5436 5453 0
-4898 -5436 5437 0
-5437 5454 0
-4901 -5437 5438 0
-5438 5455 0
-4902 -5438 5439 0
-5439 5456 0
-4905 -5439 5440 0
-5440 5457 0
-4906 -5440 5441 0
-5441 5458 0
4875 -5441 5442 0
-5442 5459 0
4876 -5442 5443 0
-5443 5460 0
4879 -5443 5444 0
-5444 5461 0
4880 -5444 5445 0
-5445 5462 0
4883 -5445 5446 0
-5446 5463 0
4884 -5446 5447 0
-5447 5464 0
4887 -5447 5448 0
-5448 5465 0
4888 -5448 5449 0
-5449 5466 0
4891 -5449 5450 0
-5450 5467 0
4892 -5450 5451 0
-5451 5468 0
4895 -5451 5452 0
-5452 5469 0
4896 -5452 0
-4898 5453 0
-5453 5470 0
-4901 -5453 5454 0
-5454 5471 0
-4902 -5454 5455 0
-5455 5472 0
-4905 -5455 5456 0
-5456 5473 0
-4906 -5456 5457 0
-5457 5474 0
4875 -5457 5458 0
-5458 5475 0
4876 -5458 5459 0
-5459 5476 0
4879 -5459 5460 0
-5460 5477 0
4880 -5460 5461 0
-5461 5478 0
4883 -5461 5462 0
-5462 5479 0
4884 -5462 5463 0
-5463 5480 0
4887 -5463 5464 0
-5464 5481 0
4888 -5464 5465 0
-5465 5482 0
4891 -5465 5466 0
-5466 5483 0
4892 -5466 5467 0
-5467 5484 0
4895 -5467 5468 0
-5468 5485 0
4896 -5468 5469 0
-5469 5486 0
4899 -5469 0
-4901 5470 0
-5470 5487 0
-4902 -5470 5471 0
-5471 5488 0
-4905 -5471 5472 0
-5472 5489 0
-4906 -5472 5473 0
-5473 5490 0
4875 -5473 5474 0
-5474 5491 0
4876 -5474 5475 0
-5475 5492 0
4879 -5475 5476 0
-5476 5493 0
4880 -5476 5477 0
-5477 5494 0
4883 -5477 5478 0
-5478 5495 0
4884 -5478 5479 0
-5479 5496 0
4887 -5479 5480 0
-5480 5497 0
4888 -5480 5481 0
-5481 5498 0
4891 -5481 5482 0
-5482 5499 0
4892 -5482 5483 0
-5483 5500 0
4895 -5483 5484 0
-5484 5501 0
4896 -5484 5485 0
-5485 5502 0
4899 -5485 5486 0
-5486 5503 0
4900 -5486 0
-4902 5487 0
-5487 5504 0
-4905 -5487 5488 0
-5488 5505 0
-4906 -5488 5489 0
-5489 5506 0
4875 -5489 5490 0
-5490 5507 0
4876 -5490 5491 0
-5491 5508 0
4879 -5491 5492 0
-5492 5509 0
4880 -5492 5493 0
-5493 5510 0
4883 -5493 5494 0
-5494 5511 0
4884 -5494 5495 0
-5495 5512 0
4887 -5495 5496 0
-5496 5513 0
4888 -5496 5497 0
-5497 5514 0
4891 -5497 5498 0
-5498 5515 0
4892 -5498 5499 0
-5499 5516 0
4895 -5499 5500 0
-5500 5517 0
4896 -5500 5501 0
-5501 5518 0
4899 -5501 5502 0
-5502 5519 0
4900 -5502 5503 0
-5503 5520 0
4903 -5503 0
-4905 5504 0
-5504 5521 0
-4906 -5504 5505 0
-5505 5522 0
4875 -5505 5506 0
-5506 5523 0
4876 -5506 5507 0
-5507 5524 0
4879 -5507 5508 0
-5508 5525 0
4880 -5508 5509 0
-5509 5526 0
4883 -5509 5510 0
-5510 5527 0
4884 -5510 5511 0
-5511 5528 0
4887 -5511 5512 0
-5512 5529 0
4888 -5512 5513 0
-5513 5530 0
4891 -5513 5514 0
-5514 5531 0
4892 -5514 5515 0
-5515 5532 0
4895 -5515 5516 0
-5516 5533 0
4896 -5516 5517 0
-5517 5534 0
4899 -5517 5518 0
-5518 5535 0
4900 -5518 5519 0
-5519 5536 0
4903 -5519 5520 0
-5520 5537 0
4904 -5520 0
-4906 5521 0
-5521 5538 0
4875 -5521 5522 0
-5522 5539 0
4876 -5522 5523 0
-5523 5540 0
4879 -5523 5524 0
-5524 5541 0
4880 -5524 5525 0
-5525 5542 0
4883 -5525 5526 0
-5526 5543 0
4884 -5526 5527 0
-5527 5544 0
4887 -5527 5528 0
-5528 5545 0
4888 -5528 5529 0
-5529 5546 0
4891 -5529 5530 0
-5530 5547 0
4892 -5530 5531 0
-5531 5548 0
4895 -5531 5532 0
-5532 5549 0
4896 -5532 5533 0
-5533 5550 0
4899 -5533 5534 0
-5534 5551 0
4900 -5534 5535 0
-5535 5552 0
4903 -5535 5536 0
-5536 5553 0
4904 -5536 5537 0
-5537 5554 0
4907 -5537 0
4875 5538 0
4876 -5538 5539 0
4879 -5539 5540 0
4880 -5540 5541 0
4883 -5541 5542 0
4884 -5542 5543 0
4887 -5543 5544 0
4888 -5544 5545 0
4891 -5545 5546 0
4892 -5546 5547 0
4895 -5547 5548 0
4896 -5548 5549 0
4899 -5549 5550 0
4900 -5550 5551 0
4903 -5551 5552 0
4904 -5552 5553 0
4907 -5553 5554 0
4908 -5554 0
