c instance SDS(9,8,1,[3,3])
c cardinality encoding seqcounter
c p_g/n_g are exclusive; exact counts fix support and nonnegative augmentation sign
c negative coefficient at identity is fixed by translation symmetry
c AND auxiliaries are encoded by three clauses each (full equivalence)
c each nonidentity equation is sum(same)+sum(not cross)=lambda+2v
p cnf 5538 11338
-1 -10 0
-2 -11 0
-3 -12 0
-4 -13 0
-5 -14 0
-6 -15 0
-7 -16 0
-8 -17 0
-9 -18 0
1 19 0
-19 20 0
2 -19 21 0
-21 22 0
3 -21 23 0
-23 24 0
4 -23 0
2 20 0
-20 25 0
3 -20 22 0
-22 26 0
4 -22 24 0
-24 27 0
5 -24 0
3 25 0
-25 28 0
4 -25 26 0
-26 29 0
5 -26 27 0
-27 30 0
6 -27 0
4 28 0
-28 31 0
5 -28 29 0
-29 32 0
6 -29 30 0
-30 33 0
7 -30 0
5 31 0
-31 34 0
6 -31 32 0
-32 35 0
7 -32 33 0
-33 36 0
8 -33 0
6 34 0
7 -34 35 0
8 -35 36 0
9 -36 0
-1 37 0
-37 38 0
-2 -37 39 0
-39 40 0
-3 -39 41 0
-41 42 0
-4 -41 43 0
-43 44 0
-5 -43 45 0
-45 46 0
-6 -45 47 0
-47 48 0
-7 -47 0
-2 38 0
-38 49 0
-3 -38 40 0
-40 50 0
-4 -40 42 0
-42 51 0
-5 -42 44 0
-44 52 0
-6 -44 46 0
-46 53 0
-7 -46 48 0
-48 54 0
-8 -48 0
-3 49 0
-4 -49 50 0
-5 -50 51 0
-6 -51 52 0
-7 -52 53 0
-8 -53 54 0
-9 -54 0
10 55 0
-55 56 0
11 -55 57 0
-57 58 0
12 -57 59 0
-59 60 0
13 -59 61 0
-61 62 0
14 -61 63 0
-63 64 0
15 -63 65 0
-65 66 0
16 -65 67 0
-67 68 0
17 -67 0
11 56 0
12 -56 58 0
13 -58 60 0
14 -60 62 0
15 -62 64 0
16 -64 66 0
17 -66 68 0
18 -68 0
-10 69 0
-69 70 0
-11 -69 71 0
-71 72 0
-12 -71 0
-11 70 0
-70 73 0
-12 -70 72 0
-72 74 0
-13 -72 0
-12 73 0
-73 75 0
-13 -73 74 0
-74 76 0
-14 -74 0
-13 75 0
-75 77 0
-14 -75 76 0
-76 78 0
-15 -76 0
-14 77 0
-77 79 0
-15 -77 78 0
-78 80 0
-16 -78 0
-15 79 0
-79 81 0
-16 -79 80 0
-80 82 0
-17 -80 0
-16 81 0
-17 -81 82 0
-18 -82 0
10 0
-83 1 0
-83 3 0
83 -1 -3 0
-84 10 0
-84 12 0
84 -10 -12 0
-85 1 0
-85 12 0
85 -1 -12 0
-86 10 0
-86 3 0
86 -10 -3 0
-87 2 0
-87 1 0
87 -2 -1 0
-88 11 0
-88 10 0
88 -11 -10 0
-89 2 0
-89 10 0
89 -2 -10 0
-90 11 0
-90 1 0
90 -11 -1 0
-91 3 0
-91 2 0
91 -3 -2 0
-92 12 0
-92 11 0
92 -12 -11 0
-93 3 0
-93 11 0
93 -3 -11 0
-94 12 0
-94 2 0
94 -12 -2 0
-95 4 0
-95 6 0
95 -4 -6 0
-96 13 0
-96 15 0
96 -13 -15 0
-97 4 0
-97 15 0
97 -4 -15 0
-98 13 0
-98 6 0
98 -13 -6 0
-99 5 0
-99 4 0
99 -5 -4 0
-100 14 0
-100 13 0
100 -14 -13 0
-101 5 0
-101 13 0
101 -5 -13 0
-102 14 0
-102 4 0
102 -14 -4 0
-103 6 0
-103 5 0
103 -6 -5 0
-104 15 0
-104 14 0
104 -15 -14 0
-105 6 0
-105 14 0
105 -6 -14 0
-106 15 0
-106 5 0
106 -15 -5 0
-107 7 0
-107 9 0
107 -7 -9 0
-108 16 0
-108 18 0
108 -16 -18 0
-109 7 0
-109 18 0
109 -7 -18 0
-110 16 0
-110 9 0
110 -16 -9 0
-111 8 0
-111 7 0
111 -8 -7 0
-112 17 0
-112 16 0
112 -17 -16 0
-113 8 0
-113 16 0
113 -8 -16 0
-114 17 0
-114 7 0
114 -17 -7 0
-115 9 0
-115 8 0
115 -9 -8 0
-116 18 0
-116 17 0
116 -18 -17 0
-117 9 0
-117 17 0
117 -9 -17 0
-118 18 0
-118 8 0
118 -18 -8 0
83 119 0
-119 120 0
84 -119 121 0
-121 122 0
87 -121 123 0
-123 124 0
88 -123 125 0
-125 126 0
91 -125 127 0
-127 128 0
92 -127 129 0
-129 130 0
95 -129 131 0
-131 132 0
96 -131 133 0
-133 134 0
99 -133 135 0
-135 136 0
100 -135 137 0
-137 138 0
103 -137 139 0
-139 140 0
104 -139 141 0
-141 142 0
107 -141 143 0
-143 144 0
108 -143 145 0
-145 146 0
111 -145 147 0
-147 148 0
112 -147 149 0
-149 150 0
115 -149 151 0
-151 152 0
116 -151 0
84 120 0
-120 153 0
87 -120 122 0
-122 154 0
88 -122 124 0
-124 155 0
91 -124 126 0
-126 156 0
92 -126 128 0
-128 157 0
95 -128 130 0
-130 158 0
96 -130 132 0
-132 159 0
99 -132 134 0
-134 160 0
100 -134 136 0
-136 161 0
103 -136 138 0
-138 162 0
104 -138 140 0
-140 163 0
107 -140 142 0
-142 164 0
108 -142 144 0
-144 165 0
111 -144 146 0
-146 166 0
112 -146 148 0
-148 167 0
115 -148 150 0
-150 168 0
116 -150 152 0
-152 169 0
-85 -152 0
87 153 0
-153 170 0
88 -153 154 0
-154 171 0
91 -154 155 0
-155 172 0
92 -155 156 0
-156 173 0
95 -156 157 0
-157 174 0
96 -157 158 0
-158 175 0
99 -158 159 0
-159 176 0
100 -159 160 0
-160 177 0
103 -160 161 0
-161 178 0
104 -161 162 0
-162 179 0
107 -162 163 0
-163 180 0
108 -163 164 0
-164 181 0
111 -164 165 0
-165 182 0
112 -165 166 0
-166 183 0
115 -166 167 0
-167 184 0
116 -167 168 0
-168 185 0
-85 -168 169 0
-169 186 0
-86 -169 0
88 170 0
-170 187 0
91 -170 171 0
-171 188 0
92 -171 172 0
-172 189 0
95 -172 173 0
-173 190 0
96 -173 174 0
-174 191 0
99 -174 175 0
-175 192 0
100 -175 176 0
-176 193 0
103 -176 177 0
-177 194 0
104 -177 178 0
-178 195 0
107 -178 179 0
-179 196 0
108 -179 180 0
-180 197 0
111 -180 181 0
-181 198 0
112 -181 182 0
-182 199 0
115 -182 183 0
-183 200 0
116 -183 184 0
-184 201 0
-85 -184 185 0
-185 202 0
-86 -185 186 0
-186 203 0
-89 -186 0
91 187 0
-187 204 0
92 -187 188 0
-188 205 0
95 -188 189 0
-189 206 0
96 -189 190 0
-190 207 0
99 -190 191 0
-191 208 0
100 -191 192 0
-192 209 0
103 -192 193 0
-193 210 0
104 -193 194 0
-194 211 0
107 -194 195 0
-195 212 0
108 -195 196 0
-196 213 0
111 -196 197 0
-197 214 0
112 -197 198 0
-198 215 0
115 -198 199 0
-199 216 0
116 -199 200 0
-200 217 0
-85 -200 201 0
-201 218 0
-86 -201 202 0
-202 219 0
-89 -202 203 0
-203 220 0
-90 -203 0
92 204 0
-204 221 0
95 -204 205 0
-205 222 0
96 -205 206 0
-206 223 0
99 -206 207 0
-207 224 0
100 -207 208 0
-208 225 0
103 -208 209 0
-209 226 0
104 -209 210 0
-210 227 0
107 -210 211 0
-211 228 0
108 -211 212 0
-212 229 0
111 -212 213 0
-213 230 0
112 -213 214 0
-214 231 0
115 -214 215 0
-215 232 0
116 -215 216 0
-216 233 0
-85 -216 217 0
-217 234 0
-86 -217 218 0
-218 235 0
-89 -218 219 0
-219 236 0
-90 -219 220 0
-220 237 0
-93 -220 0
95 221 0
-221 238 0
96 -221 222 0
-222 239 0
99 -222 223 0
-223 240 0
100 -223 224 0
-224 241 0
103 -224 225 0
-225 242 0
104 -225 226 0
-226 243 0
107 -226 227 0
-227 244 0
108 -227 228 0
-228 245 0
111 -228 229 0
-229 246 0
112 -229 230 0
-230 247 0
115 -230 231 0
-231 248 0
116 -231 232 0
-232 249 0
-85 -232 233 0
-233 250 0
-86 -233 234 0
-234 251 0
-89 -234 235 0
-235 252 0
-90 -235 236 0
-236 253 0
-93 -236 237 0
-237 254 0
-94 -237 0
96 238 0
-238 255 0
99 -238 239 0
-239 256 0
100 -239 240 0
-240 257 0
103 -240 241 0
-241 258 0
104 -241 242 0
-242 259 0
107 -242 243 0
-243 260 0
108 -243 244 0
-244 261 0
111 -244 245 0
-245 262 0
112 -245 246 0
-246 263 0
115 -246 247 0
-247 264 0
116 -247 248 0
-248 265 0
-85 -248 249 0
-249 266 0
-86 -249 250 0
-250 267 0
-89 -250 251 0
-251 268 0
-90 -251 252 0
-252 269 0
-93 -252 253 0
-253 270 0
-94 -253 254 0
-254 271 0
-97 -254 0
99 255 0
-255 272 0
100 -255 256 0
-256 273 0
103 -256 257 0
-257 274 0
104 -257 258 0
-258 275 0
107 -258 259 0
-259 276 0
108 -259 260 0
-260 277 0
111 -260 261 0
-261 278 0
112 -261 262 0
-262 279 0
115 -262 263 0
-263 280 0
116 -263 264 0
-264 281 0
-85 -264 265 0
-265 282 0
-86 -265 266 0
-266 283 0
-89 -266 267 0
-267 284 0
-90 -267 268 0
-268 285 0
-93 -268 269 0
-269 286 0
-94 -269 270 0
-270 287 0
-97 -270 271 0
-271 288 0
-98 -271 0
100 272 0
-272 289 0
103 -272 273 0
-273 290 0
104 -273 274 0
-274 291 0
107 -274 275 0
-275 292 0
108 -275 276 0
-276 293 0
111 -276 277 0
-277 294 0
112 -277 278 0
-278 295 0
115 -278 279 0
-279 296 0
116 -279 280 0
-280 297 0
-85 -280 281 0
-281 298 0
-86 -281 282 0
-282 299 0
-89 -282 283 0
-283 300 0
-90 -283 284 0
-284 301 0
-93 -284 285 0
-285 302 0
-94 -285 286 0
-286 303 0
-97 -286 287 0
-287 304 0
-98 -287 288 0
-288 305 0
-101 -288 0
103 289 0
-289 306 0
104 -289 290 0
-290 307 0
107 -290 291 0
-291 308 0
108 -291 292 0
-292 309 0
111 -292 293 0
-293 310 0
112 -293 294 0
-294 311 0
115 -294 295 0
-295 312 0
116 -295 296 0
-296 313 0
-85 -296 297 0
-297 314 0
-86 -297 298 0
-298 315 0
-89 -298 299 0
-299 316 0
-90 -299 300 0
-300 317 0
-93 -300 301 0
-301 318 0
-94 -301 302 0
-302 319 0
-97 -302 303 0
-303 320 0
-98 -303 304 0
-304 321 0
-101 -304 305 0
-305 322 0
-102 -305 0
104 306 0
-306 323 0
107 -306 307 0
-307 324 0
108 -307 308 0
-308 325 0
111 -308 309 0
-309 326 0
112 -309 310 0
-310 327 0
115 -310 311 0
-311 328 0
116 -311 312 0
-312 329 0
-85 -312 313 0
-313 330 0
-86 -313 314 0
-314 331 0
-89 -314 315 0
-315 332 0
-90 -315 316 0
-316 333 0
-93 -316 317 0
-317 334 0
-94 -317 318 0
-318 335 0
-97 -318 319 0
-319 336 0
-98 -319 320 0
-320 337 0
-101 -320 321 0
-321 338 0
-102 -321 322 0
-322 339 0
-105 -322 0
107 323 0
-323 340 0
108 -323 324 0
-324 341 0
111 -324 325 0
-325 342 0
112 -325 326 0
-326 343 0
115 -326 327 0
-327 344 0
116 -327 328 0
-328 345 0
-85 -328 329 0
-329 346 0
-86 -329 330 0
-330 347 0
-89 -330 331 0
-331 348 0
-90 -331 332 0
-332 349 0
-93 -332 333 0
-333 350 0
-94 -333 334 0
-334 351 0
-97 -334 335 0
-335 352 0
-98 -335 336 0
-336 353 0
-101 -336 337 0
-337 354 0
-102 -337 338 0
-338 355 0
-105 -338 339 0
-339 356 0
-106 -339 0
108 340 0
-340 357 0
111 -340 341 0
-341 358 0
112 -341 342 0
-342 359 0
115 -342 343 0
-343 360 0
116 -343 344 0
-344 361 0
-85 -344 345 0
-345 362 0
-86 -345 346 0
-346 363 0
-89 -346 347 0
-347 364 0
-90 -347 348 0
-348 365 0
-93 -348 349 0
-349 366 0
-94 -349 350 0
-350 367 0
-97 -350 351 0
-351 368 0
-98 -351 352 0
-352 369 0
-101 -352 353 0
-353 370 0
-102 -353 354 0
-354 371 0
-105 -354 355 0
-355 372 0
-106 -355 356 0
-356 373 0
-109 -356 0
111 357 0
-357 374 0
112 -357 358 0
-358 375 0
115 -358 359 0
-359 376 0
116 -359 360 0
-360 377 0
-85 -360 361 0
-361 378 0
-86 -361 362 0
-362 379 0
-89 -362 363 0
-363 380 0
-90 -363 364 0
-364 381 0
-93 -364 365 0
-365 382 0
-94 -365 366 0
-366 383 0
-97 -366 367 0
-367 384 0
-98 -367 368 0
-368 385 0
-101 -368 369 0
-369 386 0
-102 -369 370 0
-370 387 0
-105 -370 371 0
-371 388 0
-106 -371 372 0
-372 389 0
-109 -372 373 0
-373 390 0
-110 -373 0
112 374 0
-374 391 0
115 -374 375 0
-375 392 0
116 -375 376 0
-376 393 0
-85 -376 377 0
-377 394 0
-86 -377 378 0
-378 395 0
-89 -378 379 0
-379 396 0
-90 -379 380 0
-380 397 0
-93 -380 381 0
-381 398 0
-94 -381 382 0
-382 399 0
-97 -382 383 0
-383 400 0
-98 -383 384 0
-384 401 0
-101 -384 385 0
-385 402 0
-102 -385 386 0
-386 403 0
-105 -386 387 0
-387 404 0
-106 -387 388 0
-388 405 0
-109 -388 389 0
-389 406 0
-110 -389 390 0
-390 407 0
-113 -390 0
115 391 0
-391 408 0
116 -391 392 0
-392 409 0
-85 -392 393 0
-393 410 0
-86 -393 394 0
-394 411 0
-89 -394 395 0
-395 412 0
-90 -395 396 0
-396 413 0
-93 -396 397 0
-397 414 0
-94 -397 398 0
-398 415 0
-97 -398 399 0
-399 416 0
-98 -399 400 0
-400 417 0
-101 -400 401 0
-401 418 0
-102 -401 402 0
-402 419 0
-105 -402 403 0
-403 420 0
-106 -403 404 0
-404 421 0
-109 -404 405 0
-405 422 0
-110 -405 406 0
-406 423 0
-113 -406 407 0
-407 424 0
-114 -407 0
116 408 0
-408 425 0
-85 -408 409 0
-409 426 0
-86 -409 410 0
-410 427 0
-89 -410 411 0
-411 428 0
-90 -411 412 0
-412 429 0
-93 -412 413 0
-413 430 0
-94 -413 414 0
-414 431 0
-97 -414 415 0
-415 432 0
-98 -415 416 0
-416 433 0
-101 -416 417 0
-417 434 0
-102 -417 418 0
-418 435 0
-105 -418 419 0
-419 436 0
-106 -419 420 0
-420 437 0
-109 -420 421 0
-421 438 0
-110 -421 422 0
-422 439 0
-113 -422 423 0
-423 440 0
-114 -423 424 0
-424 441 0
-117 -424 0
-85 425 0
-86 -425 426 0
-89 -426 427 0
-90 -427 428 0
-93 -428 429 0
-94 -429 430 0
-97 -430 431 0
-98 -431 432 0
-101 -432 433 0
-102 -433 434 0
-105 -434 435 0
-106 -435 436 0
-109 -436 437 0
-110 -437 438 0
-113 -438 439 0
-114 -439 440 0
-117 -440 441 0
-118 -441 0
-83 442 0
-442 443 0
-84 -442 444 0
-444 445 0
-87 -444 446 0
-446 447 0
-88 -446 448 0
-448 449 0
-91 -448 450 0
-450 451 0
-92 -450 452 0
-452 453 0
-95 -452 454 0
-454 455 0
-96 -454 456 0
-456 457 0
-99 -456 458 0
-458 459 0
-100 -458 460 0
-460 461 0
-103 -460 462 0
-462 463 0
-104 -462 464 0
-464 465 0
-107 -464 466 0
-466 467 0
-108 -466 468 0
-468 469 0
-111 -468 470 0
-470 471 0
-112 -470 472 0
-472 473 0
-115 -472 474 0
-474 475 0
-116 -474 476 0
-476 477 0
85 -476 478 0
-478 479 0
86 -478 0
-84 443 0
-443 480 0
-87 -443 445 0
-445 481 0
-88 -445 447 0
-447 482 0
-91 -447 449 0
-449 483 0
-92 -449 451 0
-451 484 0
-95 -451 453 0
-453 485 0
-96 -453 455 0
-455 486 0
-99 -455 457 0
-457 487 0
-100 -457 459 0
-459 488 0
-103 -459 461 0
-461 489 0
-104 -461 463 0
-463 490 0
-107 -463 465 0
-465 491 0
-108 -465 467 0
-467 492 0
-111 -467 469 0
-469 493 0
-112 -469 471 0
-471 494 0
-115 -471 473 0
-473 495 0
-116 -473 475 0
-475 496 0
85 -475 477 0
-477 497 0
86 -477 479 0
-479 498 0
89 -479 0
-87 480 0
-480 499 0
-88 -480 481 0
-481 500 0
-91 -481 482 0
-482 501 0
-92 -482 483 0
-483 502 0
-95 -483 484 0
-484 503 0
-96 -484 485 0
-485 504 0
-99 -485 486 0
-486 505 0
-100 -486 487 0
-487 506 0
-103 -487 488 0
-488 507 0
-104 -488 489 0
-489 508 0
-107 -489 490 0
-490 509 0
-108 -490 491 0
-491 510 0
-111 -491 492 0
-492 511 0
-112 -492 493 0
-493 512 0
-115 -493 494 0
-494 513 0
-116 -494 495 0
-495 514 0
85 -495 496 0
-496 515 0
86 -496 497 0
-497 516 0
89 -497 498 0
-498 517 0
90 -498 0
-88 499 0
-499 518 0
-91 -499 500 0
-500 519 0
-92 -500 501 0
-501 520 0
-95 -501 502 0
-502 521 0
-96 -502 503 0
-503 522 0
-99 -503 504 0
-504 523 0
-100 -504 505 0
-505 524 0
-103 -505 506 0
-506 525 0
-104 -506 507 0
-507 526 0
-107 -507 508 0
-508 527 0
-108 -508 509 0
-509 528 0
-111 -509 510 0
-510 529 0
-112 -510 511 0
-511 530 0
-115 -511 512 0
-512 531 0
-116 -512 513 0
-513 532 0
85 -513 514 0
-514 533 0
86 -514 515 0
-515 534 0
89 -515 516 0
-516 535 0
90 -516 517 0
-517 536 0
93 -517 0
-91 518 0
-518 537 0
-92 -518 519 0
-519 538 0
-95 -519 520 0
-520 539 0
-96 -520 521 0
-521 540 0
-99 -521 522 0
-522 541 0
-100 -522 523 0
-523 542 0
-103 -523 524 0
-524 543 0
-104 -524 525 0
-525 544 0
-107 -525 526 0
-526 545 0
-108 -526 527 0
-527 546 0
-111 -527 528 0
-528 547 0
-112 -528 529 0
-529 548 0
-115 -529 530 0
-530 549 0
-116 -530 531 0
-531 550 0
85 -531 532 0
-532 551 0
86 -532 533 0
-533 552 0
89 -533 534 0
-534 553 0
90 -534 535 0
-535 554 0
93 -535 536 0
-536 555 0
94 -536 0
-92 537 0
-537 556 0
-95 -537 538 0
-538 557 0
-96 -538 539 0
-539 558 0
-99 -539 540 0
-540 559 0
-100 -540 541 0
-541 560 0
-103 -541 542 0
-542 561 0
-104 -542 543 0
-543 562 0
-107 -543 544 0
-544 563 0
-108 -544 545 0
-545 564 0
-111 -545 546 0
-546 565 0
-112 -546 547 0
-547 566 0
-115 -547 548 0
-548 567 0
-116 -548 549 0
-549 568 0
85 -549 550 0
-550 569 0
86 -550 551 0
-551 570 0
89 -551 552 0
-552 571 0
90 -552 553 0
-553 572 0
93 -553 554 0
-554 573 0
94 -554 555 0
-555 574 0
97 -555 0
-95 556 0
-556 575 0
-96 -556 557 0
-557 576 0
-99 -557 558 0
-558 577 0
-100 -558 559 0
-559 578 0
-103 -559 560 0
-560 579 0
-104 -560 561 0
-561 580 0
-107 -561 562 0
-562 581 0
-108 -562 563 0
-563 582 0
-111 -563 564 0
-564 583 0
-112 -564 565 0
-565 584 0
-115 -565 566 0
-566 585 0
-116 -566 567 0
-567 586 0
85 -567 568 0
-568 587 0
86 -568 569 0
-569 588 0
89 -569 570 0
-570 589 0
90 -570 571 0
-571 590 0
93 -571 572 0
-572 591 0
94 -572 573 0
-573 592 0
97 -573 574 0
-574 593 0
98 -574 0
-96 575 0
-575 594 0
-99 -575 576 0
-576 595 0
-100 -576 577 0
-577 596 0
-103 -577 578 0
-578 597 0
-104 -578 579 0
-579 598 0
-107 -579 580 0
-580 599 0
-108 -580 581 0
-581 600 0
-111 -581 582 0
-582 601 0
-112 -582 583 0
-583 602 0
-115 -583 584 0
-584 603 0
-116 -584 585 0
-585 604 0
85 -585 586 0
-586 605 0
86 -586 587 0
-587 606 0
89 -587 588 0
-588 607 0
90 -588 589 0
-589 608 0
93 -589 590 0
-590 609 0
94 -590 591 0
-591 610 0
97 -591 592 0
-592 611 0
98 -592 593 0
-593 612 0
101 -593 0
-99 594 0
-594 613 0
-100 -594 595 0
-595 614 0
-103 -595 596 0
-596 615 0
-104 -596 597 0
-597 616 0
-107 -597 598 0
-598 617 0
-108 -598 599 0
-599 618 0
-111 -599 600 0
-600 619 0
-112 -600 601 0
-601 620 0
-115 -601 602 0
-602 621 0
-116 -602 603 0
-603 622 0
85 -603 604 0
-604 623 0
86 -604 605 0
-605 624 0
89 -605 606 0
-606 625 0
90 -606 607 0
-607 626 0
93 -607 608 0
-608 627 0
94 -608 609 0
-609 628 0
97 -609 610 0
-610 629 0
98 -610 611 0
-611 630 0
101 -611 612 0
-612 631 0
102 -612 0
-100 613 0
-613 632 0
-103 -613 614 0
-614 633 0
-104 -614 615 0
-615 634 0
-107 -615 616 0
-616 635 0
-108 -616 617 0
-617 636 0
-111 -617 618 0
-618 637 0
-112 -618 619 0
-619 638 0
-115 -619 620 0
-620 639 0
-116 -620 621 0
-621 640 0
85 -621 622 0
-622 641 0
86 -622 623 0
-623 642 0
89 -623 624 0
-624 643 0
90 -624 625 0
-625 644 0
93 -625 626 0
-626 645 0
94 -626 627 0
-627 646 0
97 -627 628 0
-628 647 0
98 -628 629 0
-629 648 0
101 -629 630 0
-630 649 0
102 -630 631 0
-631 650 0
105 -631 0
-103 632 0
-632 651 0
-104 -632 633 0
-633 652 0
-107 -633 634 0
-634 653 0
-108 -634 635 0
-635 654 0
-111 -635 636 0
-636 655 0
-112 -636 637 0
-637 656 0
-115 -637 638 0
-638 657 0
-116 -638 639 0
-639 658 0
85 -639 640 0
-640 659 0
86 -640 641 0
-641 660 0
89 -641 642 0
-642 661 0
90 -642 643 0
-643 662 0
93 -643 644 0
-644 663 0
94 -644 645 0
-645 664 0
97 -645 646 0
-646 665 0
98 -646 647 0
-647 666 0
101 -647 648 0
-648 667 0
102 -648 649 0
-649 668 0
105 -649 650 0
-650 669 0
106 -650 0
-104 651 0
-651 670 0
-107 -651 652 0
-652 671 0
-108 -652 653 0
-653 672 0
-111 -653 654 0
-654 673 0
-112 -654 655 0
-655 674 0
-115 -655 656 0
-656 675 0
-116 -656 657 0
-657 676 0
85 -657 658 0
-658 677 0
86 -658 659 0
-659 678 0
89 -659 660 0
-660 679 0
90 -660 661 0
-661 680 0
93 -661 662 0
-662 681 0
94 -662 663 0
-663 682 0
97 -663 664 0
-664 683 0
98 -664 665 0
-665 684 0
101 -665 666 0
-666 685 0
102 -666 667 0
-667 686 0
105 -667 668 0
-668 687 0
106 -668 669 0
-669 688 0
109 -669 0
-107 670 0
-670 689 0
-108 -670 671 0
-671 690 0
-111 -671 672 0
-672 691 0
-112 -672 673 0
-673 692 0
-115 -673 674 0
-674 693 0
-116 -674 675 0
-675 694 0
85 -675 676 0
-676 695 0
86 -676 677 0
-677 696 0
89 -677 678 0
-678 697 0
90 -678 679 0
-679 698 0
93 -679 680 0
-680 699 0
94 -680 681 0
-681 700 0
97 -681 682 0
-682 701 0
98 -682 683 0
-683 702 0
101 -683 684 0
-684 703 0
102 -684 685 0
-685 704 0
105 -685 686 0
-686 705 0
106 -686 687 0
-687 706 0
109 -687 688 0
-688 707 0
110 -688 0
-108 689 0
-689 708 0
-111 -689 690 0
-690 709 0
-112 -690 691 0
-691 710 0
-115 -691 692 0
-692 711 0
-116 -692 693 0
-693 712 0
85 -693 694 0
-694 713 0
86 -694 695 0
-695 714 0
89 -695 696 0
-696 715 0
90 -696 697 0
-697 716 0
93 -697 698 0
-698 717 0
94 -698 699 0
-699 718 0
97 -699 700 0
-700 719 0
98 -700 701 0
-701 720 0
101 -701 702 0
-702 721 0
102 -702 703 0
-703 722 0
105 -703 704 0
-704 723 0
106 -704 705 0
-705 724 0
109 -705 706 0
-706 725 0
110 -706 707 0
-707 726 0
113 -707 0
-111 708 0
-708 727 0
-112 -708 709 0
-709 728 0
-115 -709 710 0
-710 729 0
-116 -710 711 0
-711 730 0
85 -711 712 0
-712 731 0
86 -712 713 0
-713 732 0
89 -713 714 0
-714 733 0
90 -714 715 0
-715 734 0
93 -715 716 0
-716 735 0
94 -716 717 0
-717 736 0
97 -717 718 0
-718 737 0
98 -718 719 0
-719 738 0
101 -719 720 0
-720 739 0
102 -720 721 0
-721 740 0
105 -721 722 0
-722 741 0
106 -722 723 0
-723 742 0
109 -723 724 0
-724 743 0
110 -724 725 0
-725 744 0
113 -725 726 0
-726 745 0
114 -726 0
-112 727 0
-727 746 0
-115 -727 728 0
-728 747 0
-116 -728 729 0
-729 748 0
85 -729 730 0
-730 749 0
86 -730 731 0
-731 750 0
89 -731 732 0
-732 751 0
90 -732 733 0
-733 752 0
93 -733 734 0
-734 753 0
94 -734 735 0
-735 754 0
97 -735 736 0
-736 755 0
98 -736 737 0
-737 756 0
101 -737 738 0
-738 757 0
102 -738 739 0
-739 758 0
105 -739 740 0
-740 759 0
106 -740 741 0
-741 760 0
109 -741 742 0
-742 761 0
110 -742 743 0
-743 762 0
113 -743 744 0
-744 763 0
114 -744 745 0
-745 764 0
117 -745 0
-115 746 0
-116 -746 747 0
85 -747 748 0
86 -748 749 0
89 -749 750 0
90 -750 751 0
93 -751 752 0
94 -752 753 0
97 -753 754 0
98 -754 755 0
101 -755 756 0
102 -756 757 0
105 -757 758 0
106 -758 759 0
109 -759 760 0
110 -760 761 0
113 -761 762 0
114 -762 763 0
117 -763 764 0
118 -764 0
-765 1 0
-765 2 0
765 -1 -2 0
-766 10 0
-766 11 0
766 -10 -11 0
-767 1 0
-767 11 0
767 -1 -11 0
-768 10 0
-768 2 0
768 -10 -2 0
-769 2 0
-769 3 0
769 -2 -3 0
-770 11 0
-770 12 0
770 -11 -12 0
-771 2 0
-771 12 0
771 -2 -12 0
-772 11 0
-772 3 0
772 -11 -3 0
-773 3 0
-773 1 0
773 -3 -1 0
-774 12 0
-774 10 0
774 -12 -10 0
-775 3 0
-775 10 0
775 -3 -10 0
-776 12 0
-776 1 0
776 -12 -1 0
-777 4 0
-777 5 0
777 -4 -5 0
-778 13 0
-778 14 0
778 -13 -14 0
-779 4 0
-779 14 0
779 -4 -14 0
-780 13 0
-780 5 0
780 -13 -5 0
-781 5 0
-781 6 0
781 -5 -6 0
-782 14 0
-782 15 0
782 -14 -15 0
-783 5 0
-783 15 0
783 -5 -15 0
-784 14 0
-784 6 0
784 -14 -6 0
-785 6 0
-785 4 0
785 -6 -4 0
-786 15 0
-786 13 0
786 -15 -13 0
-787 6 0
-787 13 0
787 -6 -13 0
-788 15 0
-788 4 0
788 -15 -4 0
-789 7 0
-789 8 0
789 -7 -8 0
-790 16 0
-790 17 0
790 -16 -17 0
-791 7 0
-791 17 0
791 -7 -17 0
-792 16 0
-792 8 0
792 -16 -8 0
-793 8 0
-793 9 0
793 -8 -9 0
-794 17 0
-794 18 0
794 -17 -18 0
-795 8 0
-795 18 0
795 -8 -18 0
-796 17 0
-796 9 0
796 -17 -9 0
-797 9 0
-797 7 0
797 -9 -7 0
-798 18 0
-798 16 0
798 -18 -16 0
-799 9 0
-799 16 0
799 -9 -16 0
-800 18 0
-800 7 0
800 -18 -7 0
765 801 0
-801 802 0
766 -801 803 0
-803 804 0
769 -803 805 0
-805 806 0
770 -805 807 0
-807 808 0
773 -807 809 0
-809 810 0
774 -809 811 0
-811 812 0
777 -811 813 0
-813 814 0
778 -813 815 0
-815 816 0
781 -815 817 0
-817 818 0
782 -817 819 0
-819 820 0
785 -819 821 0
-821 822 0
786 -821 823 0
-823 824 0
789 -823 825 0
-825 826 0
790 -825 827 0
-827 828 0
793 -827 829 0
-829 830 0
794 -829 831 0
-831 832 0
797 -831 833 0
-833 834 0
798 -833 0
766 802 0
-802 835 0
769 -802 804 0
-804 836 0
770 -804 806 0
-806 837 0
773 -806 808 0
-808 838 0
774 -808 810 0
-810 839 0
777 -810 812 0
-812 840 0
778 -812 814 0
-814 841 0
781 -814 816 0
-816 842 0
782 -816 818 0
-818 843 0
785 -818 820 0
-820 844 0
786 -820 822 0
-822 845 0
789 -822 824 0
-824 846 0
790 -824 826 0
-826 847 0
793 -826 828 0
-828 848 0
794 -828 830 0
-830 849 0
797 -830 832 0
-832 850 0
798 -832 834 0
-834 851 0
-767 -834 0
769 835 0
-835 852 0
770 -835 836 0
-836 853 0
773 -836 837 0
-837 854 0
774 -837 838 0
-838 855 0
777 -838 839 0
-839 856 0
778 -839 840 0
-840 857 0
781 -840 841 0
-841 858 0
782 -841 842 0
-842 859 0
785 -842 843 0
-843 860 0
786 -843 844 0
-844 861 0
789 -844 845 0
-845 862 0
790 -845 846 0
-846 863 0
793 -846 847 0
-847 864 0
794 -847 848 0
-848 865 0
797 -848 849 0
-849 866 0
798 -849 850 0
-850 867 0
-767 -850 851 0
-851 868 0
-768 -851 0
770 852 0
-852 869 0
773 -852 853 0
-853 870 0
774 -853 854 0
-854 871 0
777 -854 855 0
-855 872 0
778 -855 856 0
-856 873 0
781 -856 857 0
-857 874 0
782 -857 858 0
-858 875 0
785 -858 859 0
-859 876 0
786 -859 860 0
-860 877 0
789 -860 861 0
-861 878 0
790 -861 862 0
-862 879 0
793 -862 863 0
-863 880 0
794 -863 864 0
-864 881 0
797 -864 865 0
-865 882 0
798 -865 866 0
-866 883 0
-767 -866 867 0
-867 884 0
-768 -867 868 0
-868 885 0
-771 -868 0
773 869 0
-869 886 0
774 -869 870 0
-870 887 0
777 -870 871 0
-871 888 0
778 -871 872 0
-872 889 0
781 -872 873 0
-873 890 0
782 -873 874 0
-874 891 0
785 -874 875 0
-875 892 0
786 -875 876 0
-876 893 0
789 -876 877 0
-877 894 0
790 -877 878 0
-878 895 0
793 -878 879 0
-879 896 0
794 -879 880 0
-880 897 0
797 -880 881 0
-881 898 0
798 -881 882 0
-882 899 0
-767 -882 883 0
-883 900 0
-768 -883 884 0
-884 901 0
-771 -884 885 0
-885 902 0
-772 -885 0
774 886 0
-886 903 0
777 -886 887 0
-887 904 0
778 -887 888 0
-888 905 0
781 -888 889 0
-889 906 0
782 -889 890 0
-890 907 0
785 -890 891 0
-891 908 0
786 -891 892 0
-892 909 0
789 -892 893 0
-893 910 0
790 -893 894 0
-894 911 0
793 -894 895 0
-895 912 0
794 -895 896 0
-896 913 0
797 -896 897 0
-897 914 0
798 -897 898 0
-898 915 0
-767 -898 899 0
-899 916 0
-768 -899 900 0
-900 917 0
-771 -900 901 0
-901 918 0
-772 -901 902 0
-902 919 0
-775 -902 0
777 903 0
-903 920 0
778 -903 904 0
-904 921 0
781 -904 905 0
-905 922 0
782 -905 906 0
-906 923 0
785 -906 907 0
-907 924 0
786 -907 908 0
-908 925 0
789 -908 909 0
-909 926 0
790 -909 910 0
-910 927 0
793 -910 911 0
-911 928 0
794 -911 912 0
-912 929 0
797 -912 913 0
-913 930 0
798 -913 914 0
-914 931 0
-767 -914 915 0
-915 932 0
-768 -915 916 0
-916 933 0
-771 -916 917 0
-917 934 0
-772 -917 918 0
-918 935 0
-775 -918 919 0
-919 936 0
-776 -919 0
778 920 0
-920 937 0
781 -920 921 0
-921 938 0
782 -921 922 0
-922 939 0
785 -922 923 0
-923 940 0
786 -923 924 0
-924 941 0
789 -924 925 0
-925 942 0
790 -925 926 0
-926 943 0
793 -926 927 0
-927 944 0
794 -927 928 0
-928 945 0
797 -928 929 0
-929 946 0
798 -929 930 0
-930 947 0
-767 -930 931 0
-931 948 0
-768 -931 932 0
-932 949 0
-771 -932 933 0
-933 950 0
-772 -933 934 0
-934 951 0
-775 -934 935 0
-935 952 0
-776 -935 936 0
-936 953 0
-779 -936 0
781 937 0
-937 954 0
782 -937 938 0
-938 955 0
785 -938 939 0
-939 956 0
786 -939 940 0
-940 957 0
789 -940 941 0
-941 958 0
790 -941 942 0
-942 959 0
793 -942 943 0
-943 960 0
794 -943 944 0
-944 961 0
797 -944 945 0
-945 962 0
798 -945 946 0
-946 963 0
-767 -946 947 0
-947 964 0
-768 -947 948 0
-948 965 0
-771 -948 949 0
-949 966 0
-772 -949 950 0
-950 967 0
-775 -950 951 0
-951 968 0
-776 -951 952 0
-952 969 0
-779 -952 953 0
-953 970 0
-780 -953 0
782 954 0
-954 971 0
785 -954 955 0
-955 972 0
786 -955 956 0
-956 973 0
789 -956 957 0
-957 974 0
790 -957 958 0
-958 975 0
793 -958 959 0
-959 976 0
794 -959 960 0
-960 977 0
797 -960 961 0
-961 978 0
798 -961 962 0
-962 979 0
-767 -962 963 0
-963 980 0
-768 -963 964 0
-964 981 0
-771 -964 965 0
-965 982 0
-772 -965 966 0
-966 983 0
-775 -966 967 0
-967 984 0
-776 -967 968 0
-968 985 0
-779 -968 969 0
-969 986 0
-780 -969 970 0
-970 987 0
-783 -970 0
785 971 0
-971 988 0
786 -971 972 0
-972 989 0
789 -972 973 0
-973 990 0
790 -973 974 0
-974 991 0
793 -974 975 0
-975 992 0
794 -975 976 0
-976 993 0
797 -976 977 0
-977 994 0
798 -977 978 0
-978 995 0
-767 -978 979 0
-979 996 0
-768 -979 980 0
-980 997 0
-771 -980 981 0
-981 998 0
-772 -981 982 0
-982 999 0
-775 -982 983 0
-983 1000 0
-776 -983 984 0
-984 1001 0
-779 -984 985 0
-985 1002 0
-780 -985 986 0
-986 1003 0
-783 -986 987 0
-987 1004 0
-784 -987 0
786 988 0
-988 1005 0
789 -988 989 0
-989 1006 0
790 -989 990 0
-990 1007 0
793 -990 991 0
-991 1008 0
794 -991 992 0
-992 1009 0
797 -992 993 0
-993 1010 0
798 -993 994 0
-994 1011 0
-767 -994 995 0
-995 1012 0
-768 -995 996 0
-996 1013 0
-771 -996 997 0
-997 1014 0
-772 -997 998 0
-998 1015 0
-775 -998 999 0
-999 1016 0
-776 -999 1000 0
-1000 1017 0
-779 -1000 1001 0
-1001 1018 0
-780 -1001 1002 0
-1002 1019 0
-783 -1002 1003 0
-1003 1020 0
-784 -1003 1004 0
-1004 1021 0
-787 -1004 0
789 1005 0
-1005 1022 0
790 -1005 1006 0
-1006 1023 0
793 -1006 1007 0
-1007 1024 0
794 -1007 1008 0
-1008 1025 0
797 -1008 1009 0
-1009 1026 0
798 -1009 1010 0
-1010 1027 0
-767 -1010 1011 0
-1011 1028 0
-768 -1011 1012 0
-1012 1029 0
-771 -1012 1013 0
-1013 1030 0
-772 -1013 1014 0
-1014 1031 0
-775 -1014 1015 0
-1015 1032 0
-776 -1015 1016 0
-1016 1033 0
-779 -1016 1017 0
-1017 1034 0
-780 -1017 1018 0
-1018 1035 0
-783 -1018 1019 0
-1019 1036 0
-784 -1019 1020 0
-1020 1037 0
-787 -1020 1021 0
-1021 1038 0
-788 -1021 0
790 1022 0
-1022 1039 0
793 -1022 1023 0
-1023 1040 0
794 -1023 1024 0
-1024 1041 0
797 -1024 1025 0
-1025 1042 0
798 -1025 1026 0
-1026 1043 0
-767 -1026 1027 0
-1027 1044 0
-768 -1027 1028 0
-1028 1045 0
-771 -1028 1029 0
-1029 1046 0
-772 -1029 1030 0
-1030 1047 0
-775 -1030 1031 0
-1031 1048 0
-776 -1031 1032 0
-1032 1049 0
-779 -1032 1033 0
-1033 1050 0
-780 -1033 1034 0
-1034 1051 0
-783 -1034 1035 0
-1035 1052 0
-784 -1035 1036 0
-1036 1053 0
-787 -1036 1037 0
-1037 1054 0
-788 -1037 1038 0
-1038 1055 0
-791 -1038 0
793 1039 0
-1039 1056 0
794 -1039 1040 0
-1040 1057 0
797 -1040 1041 0
-1041 1058 0
798 -1041 1042 0
-1042 1059 0
-767 -1042 1043 0
-1043 1060 0
-768 -1043 1044 0
-1044 1061 0
-771 -1044 1045 0
-1045 1062 0
-772 -1045 1046 0
-1046 1063 0
-775 -1046 1047 0
-1047 1064 0
-776 -1047 1048 0
-1048 1065 0
-779 -1048 1049 0
-1049 1066 0
-780 -1049 1050 0
-1050 1067 0
-783 -1050 1051 0
-1051 1068 0
-784 -1051 1052 0
-1052 1069 0
-787 -1052 1053 0
-1053 1070 0
-788 -1053 1054 0
-1054 1071 0
-791 -1054 1055 0
-1055 1072 0
-792 -1055 0
794 1056 0
-1056 1073 0
797 -1056 1057 0
-1057 1074 0
798 -1057 1058 0
-1058 1075 0
-767 -1058 1059 0
-1059 1076 0
-768 -1059 1060 0
-1060 1077 0
-771 -1060 1061 0
-1061 1078 0
-772 -1061 1062 0
-1062 1079 0
-775 -1062 1063 0
-1063 1080 0
-776 -1063 1064 0
-1064 1081 0
-779 -1064 1065 0
-1065 1082 0
-780 -1065 1066 0
-1066 1083 0
-783 -1066 1067 0
-1067 1084 0
-784 -1067 1068 0
-1068 1085 0
-787 -1068 1069 0
-1069 1086 0
-788 -1069 1070 0
-1070 1087 0
-791 -1070 1071 0
-1071 1088 0
-792 -1071 1072 0
-1072 1089 0
-795 -1072 0
797 1073 0
-1073 1090 0
798 -1073 1074 0
-1074 1091 0
-767 -1074 1075 0
-1075 1092 0
-768 -1075 1076 0
-1076 1093 0
-771 -1076 1077 0
-1077 1094 0
-772 -1077 1078 0
-1078 1095 0
-775 -1078 1079 0
-1079 1096 0
-776 -1079 1080 0
-1080 1097 0
-779 -1080 1081 0
-1081 1098 0
-780 -1081 1082 0
-1082 1099 0
-783 -1082 1083 0
-1083 1100 0
-784 -1083 1084 0
-1084 1101 0
-787 -1084 1085 0
-1085 1102 0
-788 -1085 1086 0
-1086 1103 0
-791 -1086 1087 0
-1087 1104 0
-792 -1087 1088 0
-1088 1105 0
-795 -1088 1089 0
-1089 1106 0
-796 -1089 0
798 1090 0
-1090 1107 0
-767 -1090 1091 0
-1091 1108 0
-768 -1091 1092 0
-1092 1109 0
-771 -1092 1093 0
-1093 1110 0
-772 -1093 1094 0
-1094 1111 0
-775 -1094 1095 0
-1095 1112 0
-776 -1095 1096 0
-1096 1113 0
-779 -1096 1097 0
-1097 1114 0
-780 -1097 1098 0
-1098 1115 0
-783 -1098 1099 0
-1099 1116 0
-784 -1099 1100 0
-1100 1117 0
-787 -1100 1101 0
-1101 1118 0
-788 -1101 1102 0
-1102 1119 0
-791 -1102 1103 0
-1103 1120 0
-792 -1103 1104 0
-1104 1121 0
-795 -1104 1105 0
-1105 1122 0
-796 -1105 1106 0
-1106 1123 0
-799 -1106 0
-767 1107 0
-768 -1107 1108 0
-771 -1108 1109 0
-772 -1109 1110 0
-775 -1110 1111 0
-776 -1111 1112 0
-779 -1112 1113 0
-780 -1113 1114 0
-783 -1114 1115 0
-784 -1115 1116 0
-787 -1116 1117 0
-788 -1117 1118 0
-791 -1118 1119 0
-792 -1119 1120 0
-795 -1120 1121 0
-796 -1121 1122 0
-799 -1122 1123 0
-800 -1123 0
-765 1124 0
-1124 1125 0
-766 -1124 1126 0
-1126 1127 0
-769 -1126 1128 0
-1128 1129 0
-770 -1128 1130 0
-1130 1131 0
-773 -1130 1132 0
-1132 1133 0
-774 -1132 1134 0
-1134 1135 0
-777 -1134 1136 0
-1136 1137 0
-778 -1136 1138 0
-1138 1139 0
-781 -1138 1140 0
-1140 1141 0
-782 -1140 1142 0
-1142 1143 0
-785 -1142 1144 0
-1144 1145 0
-786 -1144 1146 0
-1146 1147 0
-789 -1146 1148 0
-1148 1149 0
-790 -1148 1150 0
-1150 1151 0
-793 -1150 1152 0
-1152 1153 0
-794 -1152 1154 0
-1154 1155 0
-797 -1154 1156 0
-1156 1157 0
-798 -1156 1158 0
-1158 1159 0
767 -1158 1160 0
-1160 1161 0
768 -1160 0
-766 1125 0
-1125 1162 0
-769 -1125 1127 0
-1127 1163 0
-770 -1127 1129 0
-1129 1164 0
-773 -1129 1131 0
-1131 1165 0
-774 -1131 1133 0
-1133 1166 0
-777 -1133 1135 0
-1135 1167 0
-778 -1135 1137 0
-1137 1168 0
-781 -1137 1139 0
-1139 1169 0
-782 -1139 1141 0
-1141 1170 0
-785 -1141 1143 0
-1143 1171 0
-786 -1143 1145 0
-1145 1172 0
-789 -1145 1147 0
-1147 1173 0
-790 -1147 1149 0
-1149 1174 0
-793 -1149 1151 0
-1151 1175 0
-794 -1151 1153 0
-1153 1176 0
-797 -1153 1155 0
-1155 1177 0
-798 -1155 1157 0
-1157 1178 0
767 -1157 1159 0
-1159 1179 0
768 -1159 1161 0
-1161 1180 0
771 -1161 0
-769 1162 0
-1162 1181 0
-770 -1162 1163 0
-1163 1182 0
-773 -1163 1164 0
-1164 1183 0
-774 -1164 1165 0
-1165 1184 0
-777 -1165 1166 0
-1166 1185 0
-778 -1166 1167 0
-1167 1186 0
-781 -1167 1168 0
-1168 1187 0
-782 -1168 1169 0
-1169 1188 0
-785 -1169 1170 0
-1170 1189 0
-786 -1170 1171 0
-1171 1190 0
-789 -1171 1172 0
-1172 1191 0
-790 -1172 1173 0
-1173 1192 0
-793 -1173 1174 0
-1174 1193 0
-794 -1174 1175 0
-1175 1194 0
-797 -1175 1176 0
-1176 1195 0
-798 -1176 1177 0
-1177 1196 0
767 -1177 1178 0
-1178 1197 0
768 -1178 1179 0
-1179 1198 0
771 -1179 1180 0
-1180 1199 0
772 -1180 0
-770 1181 0
-1181 1200 0
-773 -1181 1182 0
-1182 1201 0
-774 -1182 1183 0
-1183 1202 0
-777 -1183 1184 0
-1184 1203 0
-778 -1184 1185 0
-1185 1204 0
-781 -1185 1186 0
-1186 1205 0
-782 -1186 1187 0
-1187 1206 0
-785 -1187 1188 0
-1188 1207 0
-786 -1188 1189 0
-1189 1208 0
-789 -1189 1190 0
-1190 1209 0
-790 -1190 1191 0
-1191 1210 0
-793 -1191 1192 0
-1192 1211 0
-794 -1192 1193 0
-1193 1212 0
-797 -1193 1194 0
-1194 1213 0
-798 -1194 1195 0
-1195 1214 0
767 -1195 1196 0
-1196 1215 0
768 -1196 1197 0
-1197 1216 0
771 -1197 1198 0
-1198 1217 0
772 -1198 1199 0
-1199 1218 0
775 -1199 0
-773 1200 0
-1200 1219 0
-774 -1200 1201 0
-1201 1220 0
-777 -1201 1202 0
-1202 1221 0
-778 -1202 1203 0
-1203 1222 0
-781 -1203 1204 0
-1204 1223 0
-782 -1204 1205 0
-1205 1224 0
-785 -1205 1206 0
-1206 1225 0
-786 -1206 1207 0
-1207 1226 0
-789 -1207 1208 0
-1208 1227 0
-790 -1208 1209 0
-1209 1228 0
-793 -1209 1210 0
-1210 1229 0
-794 -1210 1211 0
-1211 1230 0
-797 -1211 1212 0
-1212 1231 0
-798 -1212 1213 0
-1213 1232 0
767 -1213 1214 0
-1214 1233 0
768 -1214 1215 0
-1215 1234 0
771 -1215 1216 0
-1216 1235 0
772 -1216 1217 0
-1217 1236 0
775 -1217 1218 0
-1218 1237 0
776 -1218 0
-774 1219 0
-1219 1238 0
-777 -1219 1220 0
-1220 1239 0
-778 -1220 1221 0
-1221 1240 0
-781 -1221 1222 0
-1222 1241 0
-782 -1222 1223 0
-1223 1242 0
-785 -1223 1224 0
-1224 1243 0
-786 -1224 1225 0
-1225 1244 0
-789 -1225 1226 0
-1226 1245 0
-790 -1226 1227 0
-1227 1246 0
-793 -1227 1228 0
-1228 1247 0
-794 -1228 1229 0
-1229 1248 0
-797 -1229 1230 0
-1230 1249 0
-798 -1230 1231 0
-1231 1250 0
767 -1231 1232 0
-1232 1251 0
768 -1232 1233 0
-1233 1252 0
771 -1233 1234 0
-1234 1253 0
772 -1234 1235 0
-1235 1254 0
775 -1235 1236 0
-1236 1255 0
776 -1236 1237 0
-1237 1256 0
779 -1237 0
-777 1238 0
-1238 1257 0
-778 -1238 1239 0
-1239 1258 0
-781 -1239 1240 0
-1240 1259 0
-782 -1240 1241 0
-1241 1260 0
-785 -1241 1242 0
-1242 1261 0
-786 -1242 1243 0
-1243 1262 0
-789 -1243 1244 0
-1244 1263 0
-790 -1244 1245 0
-1245 1264 0
-793 -1245 1246 0
-1246 1265 0
-794 -1246 1247 0
-1247 1266 0
-797 -1247 1248 0
-1248 1267 0
-798 -1248 1249 0
-1249 1268 0
767 -1249 1250 0
-1250 1269 0
768 -1250 1251 0
-1251 1270 0
771 -1251 1252 0
-1252 1271 0
772 -1252 1253 0
-1253 1272 0
775 -1253 1254 0
-1254 1273 0
776 -1254 1255 0
-1255 1274 0
779 -1255 1256 0
-1256 1275 0
780 -1256 0
-778 1257 0
-1257 1276 0
-781 -1257 1258 0
-1258 1277 0
-782 -1258 1259 0
-1259 1278 0
-785 -1259 1260 0
-1260 1279 0
-786 -1260 1261 0
-1261 1280 0
-789 -1261 1262 0
-1262 1281 0
-790 -1262 1263 0
-1263 1282 0
-793 -1263 1264 0
-1264 1283 0
-794 -1264 1265 0
-1265 1284 0
-797 -1265 1266 0
-1266 1285 0
-798 -1266 1267 0
-1267 1286 0
767 -1267 1268 0
-1268 1287 0
768 -1268 1269 0
-1269 1288 0
771 -1269 1270 0
-1270 1289 0
772 -1270 1271 0
-1271 1290 0
775 -1271 1272 0
-1272 1291 0
776 -1272 1273 0
-1273 1292 0
779 -1273 1274 0
-1274 1293 0
780 -1274 1275 0
-1275 1294 0
783 -1275 0
-781 1276 0
-1276 1295 0
-782 -1276 1277 0
-1277 1296 0
-785 -1277 1278 0
-1278 1297 0
-786 -1278 1279 0
-1279 1298 0
-789 -1279 1280 0
-1280 1299 0
-790 -1280 1281 0
-1281 1300 0
-793 -1281 1282 0
-1282 1301 0
-794 -1282 1283 0
-1283 1302 0
-797 -1283 1284 0
-1284 1303 0
-798 -1284 1285 0
-1285 1304 0
767 -1285 1286 0
-1286 1305 0
768 -1286 1287 0
-1287 1306 0
771 -1287 1288 0
-1288 1307 0
772 -1288 1289 0
-1289 1308 0
775 -1289 1290 0
-1290 1309 0
776 -1290 1291 0
-1291 1310 0
779 -1291 1292 0
-1292 1311 0
780 -1292 1293 0
-1293 1312 0
783 -1293 1294 0
-1294 1313 0
784 -1294 0
-782 1295 0
-1295 1314 0
-785 -1295 1296 0
-1296 1315 0
-786 -1296 1297 0
-1297 1316 0
-789 -1297 1298 0
-1298 1317 0
-790 -1298 1299 0
-1299 1318 0
-793 -1299 1300 0
-1300 1319 0
-794 -1300 1301 0
-1301 1320 0
-797 -1301 1302 0
-1302 1321 0
-798 -1302 1303 0
-1303 1322 0
767 -1303 1304 0
-1304 1323 0
768 -1304 1305 0
-1305 1324 0
771 -1305 1306 0
-1306 1325 0
772 -1306 1307 0
-1307 1326 0
775 -1307 1308 0
-1308 1327 0
776 -1308 1309 0
-1309 1328 0
779 -1309 1310 0
-1310 1329 0
780 -1310 1311 0
-1311 1330 0
783 -1311 1312 0
-1312 1331 0
784 -1312 1313 0
-1313 1332 0
787 -1313 0
-785 1314 0
-1314 1333 0
-786 -1314 1315 0
-1315 1334 0
-789 -1315 1316 0
-1316 1335 0
-790 -1316 1317 0
-1317 1336 0
-793 -1317 1318 0
-1318 1337 0
-794 -1318 1319 0
-1319 1338 0
-797 -1319 1320 0
-1320 1339 0
-798 -1320 1321 0
-1321 1340 0
767 -1321 1322 0
-1322 1341 0
768 -1322 1323 0
-1323 1342 0
771 -1323 1324 0
-1324 1343 0
772 -1324 1325 0
-1325 1344 0
775 -1325 1326 0
-1326 1345 0
776 -1326 1327 0
-1327 1346 0
779 -1327 1328 0
-1328 1347 0
780 -1328 1329 0
-1329 1348 0
783 -1329 1330 0
-1330 1349 0
784 -1330 1331 0
-1331 1350 0
787 -1331 1332 0
-1332 1351 0
788 -1332 0
-786 1333 0
-1333 1352 0
-789 -1333 1334 0
-1334 1353 0
-790 -1334 1335 0
-1335 1354 0
-793 -1335 1336 0
-1336 1355 0
-794 -1336 1337 0
-1337 1356 0
-797 -1337 1338 0
-1338 1357 0
-798 -1338 1339 0
-1339 1358 0
767 -1339 1340 0
-1340 1359 0
768 -1340 1341 0
-1341 1360 0
771 -1341 1342 0
-1342 1361 0
772 -1342 1343 0
-1343 1362 0
775 -1343 1344 0
-1344 1363 0
776 -1344 1345 0
-1345 1364 0
779 -1345 1346 0
-1346 1365 0
780 -1346 1347 0
-1347 1366 0
783 -1347 1348 0
-1348 1367 0
784 -1348 1349 0
-1349 1368 0
787 -1349 1350 0
-1350 1369 0
788 -1350 1351 0
-1351 1370 0
791 -1351 0
-789 1352 0
-1352 1371 0
-790 -1352 1353 0
-1353 1372 0
-793 -1353 1354 0
-1354 1373 0
-794 -1354 1355 0
-1355 1374 0
-797 -1355 1356 0
-1356 1375 0
-798 -1356 1357 0
-1357 1376 0
767 -1357 1358 0
-1358 1377 0
768 -1358 1359 0
-1359 1378 0
771 -1359 1360 0
-1360 1379 0
772 -1360 1361 0
-1361 1380 0
775 -1361 1362 0
-1362 1381 0
776 -1362 1363 0
-1363 1382 0
779 -1363 1364 0
-1364 1383 0
780 -1364 1365 0
-1365 1384 0
783 -1365 1366 0
-1366 1385 0
784 -1366 1367 0
-1367 1386 0
787 -1367 1368 0
-1368 1387 0
788 -1368 1369 0
-1369 1388 0
791 -1369 1370 0
-1370 1389 0
792 -1370 0
-790 1371 0
-1371 1390 0
-793 -1371 1372 0
-1372 1391 0
-794 -1372 1373 0
-1373 1392 0
-797 -1373 1374 0
-1374 1393 0
-798 -1374 1375 0
-1375 1394 0
767 -1375 1376 0
-1376 1395 0
768 -1376 1377 0
-1377 1396 0
771 -1377 1378 0
-1378 1397 0
772 -1378 1379 0
-1379 1398 0
775 -1379 1380 0
-1380 1399 0
776 -1380 1381 0
-1381 1400 0
779 -1381 1382 0
-1382 1401 0
780 -1382 1383 0
-1383 1402 0
783 -1383 1384 0
-1384 1403 0
784 -1384 1385 0
-1385 1404 0
787 -1385 1386 0
-1386 1405 0
788 -1386 1387 0
-1387 1406 0
791 -1387 1388 0
-1388 1407 0
792 -1388 1389 0
-1389 1408 0
795 -1389 0
-793 1390 0
-1390 1409 0
-794 -1390 1391 0
-1391 1410 0
-797 -1391 1392 0
-1392 1411 0
-798 -1392 1393 0
-1393 1412 0
767 -1393 1394 0
-1394 1413 0
768 -1394 1395 0
-1395 1414 0
771 -1395 1396 0
-1396 1415 0
772 -1396 1397 0
-1397 1416 0
775 -1397 1398 0
-1398 1417 0
776 -1398 1399 0
-1399 1418 0
779 -1399 1400 0
-1400 1419 0
780 -1400 1401 0
-1401 1420 0
783 -1401 1402 0
-1402 1421 0
784 -1402 1403 0
-1403 1422 0
787 -1403 1404 0
-1404 1423 0
788 -1404 1405 0
-1405 1424 0
791 -1405 1406 0
-1406 1425 0
792 -1406 1407 0
-1407 1426 0
795 -1407 1408 0
-1408 1427 0
796 -1408 0
-794 1409 0
-1409 1428 0
-797 -1409 1410 0
-1410 1429 0
-798 -1410 1411 0
-1411 1430 0
767 -1411 1412 0
-1412 1431 0
768 -1412 1413 0
-1413 1432 0
771 -1413 1414 0
-1414 1433 0
772 -1414 1415 0
-1415 1434 0
775 -1415 1416 0
-1416 1435 0
776 -1416 1417 0
-1417 1436 0
779 -1417 1418 0
-1418 1437 0
780 -1418 1419 0
-1419 1438 0
783 -1419 1420 0
-1420 1439 0
784 -1420 1421 0
-1421 1440 0
787 -1421 1422 0
-1422 1441 0
788 -1422 1423 0
-1423 1442 0
791 -1423 1424 0
-1424 1443 0
792 -1424 1425 0
-1425 1444 0
795 -1425 1426 0
-1426 1445 0
796 -1426 1427 0
-1427 1446 0
799 -1427 0
-797 1428 0
-798 -1428 1429 0
767 -1429 1430 0
768 -1430 1431 0
771 -1431 1432 0
772 -1432 1433 0
775 -1433 1434 0
776 -1434 1435 0
779 -1435 1436 0
780 -1436 1437 0
783 -1437 1438 0
784 -1438 1439 0
787 -1439 1440 0
788 -1440 1441 0
791 -1441 1442 0
792 -1442 1443 0
795 -1443 1444 0
796 -1444 1445 0
799 -1445 1446 0
800 -1446 0
-1447 1 0
-1447 7 0
1447 -1 -7 0
-1448 10 0
-1448 16 0
1448 -10 -16 0
-1449 1 0
-1449 16 0
1449 -1 -16 0
-1450 10 0
-1450 7 0
1450 -10 -7 0
-1451 2 0
-1451 8 0
1451 -2 -8 0
-1452 11 0
-1452 17 0
1452 -11 -17 0
-1453 2 0
-1453 17 0
1453 -2 -17 0
-1454 11 0
-1454 8 0
1454 -11 -8 0
-1455 3 0
-1455 9 0
1455 -3 -9 0
-1456 12 0
-1456 18 0
1456 -12 -18 0
-1457 3 0
-1457 18 0
1457 -3 -18 0
-1458 12 0
-1458 9 0
1458 -12 -9 0
-1459 4 0
-1459 1 0
1459 -4 -1 0
-1460 13 0
-1460 10 0
1460 -13 -10 0
-1461 4 0
-1461 10 0
1461 -4 -10 0
-1462 13 0
-1462 1 0
1462 -13 -1 0
-1463 5 0
-1463 2 0
1463 -5 -2 0
-1464 14 0
-1464 11 0
1464 -14 -11 0
-1465 5 0
-1465 11 0
1465 -5 -11 0
-1466 14 0
-1466 2 0
1466 -14 -2 0
-1467 6 0
-1467 3 0
1467 -6 -3 0
-1468 15 0
-1468 12 0
1468 -15 -12 0
-1469 6 0
-1469 12 0
1469 -6 -12 0
-1470 15 0
-1470 3 0
1470 -15 -3 0
-1471 7 0
-1471 4 0
1471 -7 -4 0
-1472 16 0
-1472 13 0
1472 -16 -13 0
-1473 7 0
-1473 13 0
1473 -7 -13 0
-1474 16 0
-1474 4 0
1474 -16 -4 0
-1475 8 0
-1475 5 0
1475 -8 -5 0
-1476 17 0
-1476 14 0
1476 -17 -14 0
-1477 8 0
-1477 14 0
1477 -8 -14 0
-1478 17 0
-1478 5 0
1478 -17 -5 0
-1479 9 0
-1479 6 0
1479 -9 -6 0
-1480 18 0
-1480 15 0
1480 -18 -15 0
-1481 9 0
-1481 15 0
1481 -9 -15 0
-1482 18 0
-1482 6 0
1482 -18 -6 0
1447 1483 0
-1483 1484 0
1448 -1483 1485 0
-1485 1486 0
1451 -1485 1487 0
-1487 1488 0
1452 -1487 1489 0
-1489 1490 0
1455 -1489 1491 0
-1491 1492 0
1456 -1491 1493 0
-1493 1494 0
1459 -1493 1495 0
-1495 1496 0
1460 -1495 1497 0
-1497 1498 0
1463 -1497 1499 0
-1499 1500 0
1464 -1499 1501 0
-1501 1502 0
1467 -1501 1503 0
-1503 1504 0
1468 -1503 1505 0
-1505 1506 0
1471 -1505 1507 0
-1507 1508 0
1472 -1507 1509 0
-1509 1510 0
1475 -1509 1511 0
-1511 1512 0
1476 -1511 1513 0
-1513 1514 0
1479 -1513 1515 0
-1515 1516 0
1480 -1515 0
1448 1484 0
-1484 1517 0
1451 -1484 1486 0
-1486 1518 0
1452 -1486 1488 0
-1488 1519 0
1455 -1488 1490 0
-1490 1520 0
1456 -1490 1492 0
-1492 1521 0
1459 -1492 1494 0
-1494 1522 0
1460 -1494 1496 0
-1496 1523 0
1463 -1496 1498 0
-1498 1524 0
1464 -1498 1500 0
-1500 1525 0
1467 -1500 1502 0
-1502 1526 0
1468 -1502 1504 0
-1504 1527 0
1471 -1504 1506 0
-1506 1528 0
1472 -1506 1508 0
-1508 1529 0
1475 -1508 1510 0
-1510 1530 0
1476 -1510 1512 0
-1512 1531 0
1479 -1512 1514 0
-1514 1532 0
1480 -1514 1516 0
-1516 1533 0
-1449 -1516 0
1451 1517 0
-1517 1534 0
1452 -1517 1518 0
-1518 1535 0
1455 -1518 1519 0
-1519 1536 0
1456 -1519 1520 0
-1520 1537 0
1459 -1520 1521 0
-1521 1538 0
1460 -1521 1522 0
-1522 1539 0
1463 -1522 1523 0
-1523 1540 0
1464 -1523 1524 0
-1524 1541 0
1467 -1524 1525 0
-1525 1542 0
1468 -1525 1526 0
-1526 1543 0
1471 -1526 1527 0
-1527 1544 0
1472 -1527 1528 0
-1528 1545 0
1475 -1528 1529 0
-1529 1546 0
1476 -1529 1530 0
-1530 1547 0
1479 -1530 1531 0
-1531 1548 0
1480 -1531 1532 0
-1532 1549 0
-1449 -1532 1533 0
-1533 1550 0
-1450 -1533 0
1452 1534 0
-1534 1551 0
1455 -1534 1535 0
-1535 1552 0
1456 -1535 1536 0
-1536 1553 0
1459 -1536 1537 0
-1537 1554 0
1460 -1537 1538 0
-1538 1555 0
1463 -1538 1539 0
-1539 1556 0
1464 -1539 1540 0
-1540 1557 0
1467 -1540 1541 0
-1541 1558 0
1468 -1541 1542 0
-1542 1559 0
1471 -1542 1543 0
-1543 1560 0
1472 -1543 1544 0
-1544 1561 0
1475 -1544 1545 0
-1545 1562 0
1476 -1545 1546 0
-1546 1563 0
1479 -1546 1547 0
-1547 1564 0
1480 -1547 1548 0
-1548 1565 0
-1449 -1548 1549 0
-1549 1566 0
-1450 -1549 1550 0
-1550 1567 0
-1453 -1550 0
1455 1551 0
-1551 1568 0
1456 -1551 1552 0
-1552 1569 0
1459 -1552 1553 0
-1553 1570 0
1460 -1553 1554 0
-1554 1571 0
1463 -1554 1555 0
-1555 1572 0
1464 -1555 1556 0
-1556 1573 0
1467 -1556 1557 0
-1557 1574 0
1468 -1557 1558 0
-1558 1575 0
1471 -1558 1559 0
-1559 1576 0
1472 -1559 1560 0
-1560 1577 0
1475 -1560 1561 0
-1561 1578 0
1476 -1561 1562 0
-1562 1579 0
1479 -1562 1563 0
-1563 1580 0
1480 -1563 1564 0
-1564 1581 0
-1449 -1564 1565 0
-1565 1582 0
-1450 -1565 1566 0
-1566 1583 0
-1453 -1566 1567 0
-1567 1584 0
-1454 -1567 0
1456 1568 0
-1568 1585 0
1459 -1568 1569 0
-1569 1586 0
1460 -1569 1570 0
-1570 1587 0
1463 -1570 1571 0
-1571 1588 0
1464 -1571 1572 0
-1572 1589 0
1467 -1572 1573 0
-1573 1590 0
1468 -1573 1574 0
-1574 1591 0
1471 -1574 1575 0
-1575 1592 0
1472 -1575 1576 0
-1576 1593 0
1475 -1576 1577 0
-1577 1594 0
1476 -1577 1578 0
-1578 1595 0
1479 -1578 1579 0
-1579 1596 0
1480 -1579 1580 0
-1580 1597 0
-1449 -1580 1581 0
-1581 1598 0
-1450 -1581 1582 0
-1582 1599 0
-1453 -1582 1583 0
-1583 1600 0
-1454 -1583 1584 0
-1584 1601 0
-1457 -1584 0
1459 1585 0
-1585 1602 0
1460 -1585 1586 0
-1586 1603 0
1463 -1586 1587 0
-1587 1604 0
1464 -1587 1588 0
-1588 1605 0
1467 -1588 1589 0
-1589 1606 0
1468 -1589 1590 0
-1590 1607 0
1471 -1590 1591 0
-1591 1608 0
1472 -1591 1592 0
-1592 1609 0
1475 -1592 1593 0
-1593 1610 0
1476 -1593 1594 0
-1594 1611 0
1479 -1594 1595 0
-1595 1612 0
1480 -1595 1596 0
-1596 1613 0
-1449 -1596 1597 0
-1597 1614 0
-1450 -1597 1598 0
-1598 1615 0
-1453 -1598 1599 0
-1599 1616 0
-1454 -1599 1600 0
-1600 1617 0
-1457 -1600 1601 0
-1601 1618 0
-1458 -1601 0
1460 1602 0
-1602 1619 0
1463 -1602 1603 0
-1603 1620 0
1464 -1603 1604 0
-1604 1621 0
1467 -1604 1605 0
-1605 1622 0
1468 -1605 1606 0
-1606 1623 0
1471 -1606 1607 0
-1607 1624 0
1472 -1607 1608 0
-1608 1625 0
1475 -1608 1609 0
-1609 1626 0
1476 -1609 1610 0
-1610 1627 0
1479 -1610 1611 0
-1611 1628 0
1480 -1611 1612 0
-1612 1629 0
-1449 -1612 1613 0
-1613 1630 0
-1450 -1613 1614 0
-1614 1631 0
-1453 -1614 1615 0
-1615 1632 0
-1454 -1615 1616 0
-1616 1633 0
-1457 -1616 1617 0
-1617 1634 0
-1458 -1617 1618 0
-1618 1635 0
-1461 -1618 0
1463 1619 0
-1619 1636 0
1464 -1619 1620 0
-1620 1637 0
1467 -1620 1621 0
-1621 1638 0
1468 -1621 1622 0
-1622 1639 0
1471 -1622 1623 0
-1623 1640 0
1472 -1623 1624 0
-1624 1641 0
1475 -1624 1625 0
-1625 1642 0
1476 -1625 1626 0
-1626 1643 0
1479 -1626 1627 0
-1627 1644 0
1480 -1627 1628 0
-1628 1645 0
-1449 -1628 1629 0
-1629 1646 0
-1450 -1629 1630 0
-1630 1647 0
-1453 -1630 1631 0
-1631 1648 0
-1454 -1631 1632 0
-1632 1649 0
-1457 -1632 1633 0
-1633 1650 0
-1458 -1633 1634 0
-1634 1651 0
-1461 -1634 1635 0
-1635 1652 0
-1462 -1635 0
1464 1636 0
-1636 1653 0
1467 -1636 1637 0
-1637 1654 0
1468 -1637 1638 0
-1638 1655 0
1471 -1638 1639 0
-1639 1656 0
1472 -1639 1640 0
-1640 1657 0
1475 -1640 1641 0
-1641 1658 0
1476 -1641 1642 0
-1642 1659 0
1479 -1642 1643 0
-1643 1660 0
1480 -1643 1644 0
-1644 1661 0
-1449 -1644 1645 0
-1645 1662 0
-1450 -1645 1646 0
-1646 1663 0
-1453 -1646 1647 0
-1647 1664 0
-1454 -1647 1648 0
-1648 1665 0
-1457 -1648 1649 0
-1649 1666 0
-1458 -1649 1650 0
-1650 1667 0
-1461 -1650 1651 0
-1651 1668 0
-1462 -1651 1652 0
-1652 1669 0
-1465 -1652 0
1467 1653 0
-1653 1670 0
1468 -1653 1654 0
-1654 1671 0
1471 -1654 1655 0
-1655 1672 0
1472 -1655 1656 0
-1656 1673 0
1475 -1656 1657 0
-1657 1674 0
1476 -1657 1658 0
-1658 1675 0
1479 -1658 1659 0
-1659 1676 0
1480 -1659 1660 0
-1660 1677 0
-1449 -1660 1661 0
-1661 1678 0
-1450 -1661 1662 0
-1662 1679 0
-1453 -1662 1663 0
-1663 1680 0
-1454 -1663 1664 0
-1664 1681 0
-1457 -1664 1665 0
-1665 1682 0
-1458 -1665 1666 0
-1666 1683 0
-1461 -1666 1667 0
-1667 1684 0
-1462 -1667 1668 0
-1668 1685 0
-1465 -1668 1669 0
-1669 1686 0
-1466 -1669 0
1468 1670 0
-1670 1687 0
1471 -1670 1671 0
-1671 1688 0
1472 -1671 1672 0
-1672 1689 0
1475 -1672 1673 0
-1673 1690 0
1476 -1673 1674 0
-1674 1691 0
1479 -1674 1675 0
-1675 1692 0
1480 -1675 1676 0
-1676 1693 0
-1449 -1676 1677 0
-1677 1694 0
-1450 -1677 1678 0
-1678 1695 0
-1453 -1678 1679 0
-1679 1696 0
-1454 -1679 1680 0
-1680 1697 0
-1457 -1680 1681 0
-1681 1698 0
-1458 -1681 1682 0
-1682 1699 0
-1461 -1682 1683 0
-1683 1700 0
-1462 -1683 1684 0
-1684 1701 0
-1465 -1684 1685 0
-1685 1702 0
-1466 -1685 1686 0
-1686 1703 0
-1469 -1686 0
1471 1687 0
-1687 1704 0
1472 -1687 1688 0
-1688 1705 0
1475 -1688 1689 0
-1689 1706 0
1476 -1689 1690 0
-1690 1707 0
1479 -1690 1691 0
-1691 1708 0
1480 -1691 1692 0
-1692 1709 0
-1449 -1692 1693 0
-1693 1710 0
-1450 -1693 1694 0
-1694 1711 0
-1453 -1694 1695 0
-1695 1712 0
-1454 -1695 1696 0
-1696 1713 0
-1457 -1696 1697 0
-1697 1714 0
-1458 -1697 1698 0
-1698 1715 0
-1461 -1698 1699 0
-1699 1716 0
-1462 -1699 1700 0
-1700 1717 0
-1465 -1700 1701 0
-1701 1718 0
-1466 -1701 1702 0
-1702 1719 0
-1469 -1702 1703 0
-1703 1720 0
-1470 -1703 0
1472 1704 0
-1704 1721 0
1475 -1704 1705 0
-1705 1722 0
1476 -1705 1706 0
-1706 1723 0
1479 -1706 1707 0
-1707 1724 0
1480 -1707 1708 0
-1708 1725 0
-1449 -1708 1709 0
-1709 1726 0
-1450 -1709 1710 0
-1710 1727 0
-1453 -1710 1711 0
-1711 1728 0
-1454 -1711 1712 0
-1712 1729 0
-1457 -1712 1713 0
-1713 1730 0
-1458 -1713 1714 0
-1714 1731 0
-1461 -1714 1715 0
-1715 1732 0
-1462 -1715 1716 0
-1716 1733 0
-1465 -1716 1717 0
-1717 1734 0
-1466 -1717 1718 0
-1718 1735 0
-1469 -1718 1719 0
-1719 1736 0
-1470 -1719 1720 0
-1720 1737 0
-1473 -1720 0
1475 1721 0
-1721 1738 0
1476 -1721 1722 0
-1722 1739 0
1479 -1722 1723 0
-1723 1740 0
1480 -1723 1724 0
-1724 1741 0
-1449 -1724 1725 0
-1725 1742 0
-1450 -1725 1726 0
-1726 1743 0
-1453 -1726 1727 0
-1727 1744 0
-1454 -1727 1728 0
-1728 1745 0
-1457 -1728 1729 0
-1729 1746 0
-1458 -1729 1730 0
-1730 1747 0
-1461 -1730 1731 0
-1731 1748 0
-1462 -1731 1732 0
-1732 1749 0
-1465 -1732 1733 0
-1733 1750 0
-1466 -1733 1734 0
-1734 1751 0
-1469 -1734 1735 0
-1735 1752 0
-1470 -1735 1736 0
-1736 1753 0
-1473 -1736 1737 0
-1737 1754 0
-1474 -1737 0
1476 1738 0
-1738 1755 0
1479 -1738 1739 0
-1739 1756 0
1480 -1739 1740 0
-1740 1757 0
-1449 -1740 1741 0
-1741 1758 0
-1450 -1741 1742 0
-1742 1759 0
-1453 -1742 1743 0
-1743 1760 0
-1454 -1743 1744 0
-1744 1761 0
-1457 -1744 1745 0
-1745 1762 0
-1458 -1745 1746 0
-1746 1763 0
-1461 -1746 1747 0
-1747 1764 0
-1462 -1747 1748 0
-1748 1765 0
-1465 -1748 1749 0
-1749 1766 0
-1466 -1749 1750 0
-1750 1767 0
-1469 -1750 1751 0
-1751 1768 0
-1470 -1751 1752 0
-1752 1769 0
-1473 -1752 1753 0
-1753 1770 0
-1474 -1753 1754 0
-1754 1771 0
-1477 -1754 0
1479 1755 0
-1755 1772 0
1480 -1755 1756 0
-1756 1773 0
-1449 -1756 1757 0
-1757 1774 0
-1450 -1757 1758 0
-1758 1775 0
-1453 -1758 1759 0
-1759 1776 0
-1454 -1759 1760 0
-1760 1777 0
-1457 -1760 1761 0
-1761 1778 0
-1458 -1761 1762 0
-1762 1779 0
-1461 -1762 1763 0
-1763 1780 0
-1462 -1763 1764 0
-1764 1781 0
-1465 -1764 1765 0
-1765 1782 0
-1466 -1765 1766 0
-1766 1783 0
-1469 -1766 1767 0
-1767 1784 0
-1470 -1767 1768 0
-1768 1785 0
-1473 -1768 1769 0
-1769 1786 0
-1474 -1769 1770 0
-1770 1787 0
-1477 -1770 1771 0
-1771 1788 0
-1478 -1771 0
1480 1772 0
-1772 1789 0
-1449 -1772 1773 0
-1773 1790 0
-1450 -1773 1774 0
-1774 1791 0
-1453 -1774 1775 0
-1775 1792 0
-1454 -1775 1776 0
-1776 1793 0
-1457 -1776 1777 0
-1777 1794 0
-1458 -1777 1778 0
-1778 1795 0
-1461 -1778 1779 0
-1779 1796 0
-1462 -1779 1780 0
-1780 1797 0
-1465 -1780 1781 0
-1781 1798 0
-1466 -1781 1782 0
-1782 1799 0
-1469 -1782 1783 0
-1783 1800 0
-1470 -1783 1784 0
-1784 1801 0
-1473 -1784 1785 0
-1785 1802 0
-1474 -1785 1786 0
-1786 1803 0
-1477 -1786 1787 0
-1787 1804 0
-1478 -1787 1788 0
-1788 1805 0
-1481 -1788 0
-1449 1789 0
-1450 -1789 1790 0
-1453 -1790 1791 0
-1454 -1791 1792 0
-1457 -1792 1793 0
-1458 -1793 1794 0
-1461 -1794 1795 0
-1462 -1795 1796 0
-1465 -1796 1797 0
-1466 -1797 1798 0
-1469 -1798 1799 0
-1470 -1799 1800 0
-1473 -1800 1801 0
-1474 -1801 1802 0
-1477 -1802 1803 0
-1478 -1803 1804 0
-1481 -1804 1805 0
-1482 -1805 0
-1447 1806 0
-1806 1807 0
-1448 -1806 1808 0
-1808 1809 0
-1451 -1808 1810 0
-1810 1811 0
-1452 -1810 1812 0
-1812 1813 0
-1455 -1812 1814 0
-1814 1815 0
-1456 -1814 1816 0
-1816 1817 0
-1459 -1816 1818 0
-1818 1819 0
-1460 -1818 1820 0
-1820 1821 0
-1463 -1820 1822 0
-1822 1823 0
-1464 -1822 1824 0
-1824 1825 0
-1467 -1824 1826 0
-1826 1827 0
-1468 -1826 1828 0
-1828 1829 0
-1471 -1828 1830 0
-1830 1831 0
-1472 -1830 1832 0
-1832 1833 0
-1475 -1832 1834 0
-1834 1835 0
-1476 -1834 1836 0
-1836 1837 0
-1479 -1836 1838 0
-1838 1839 0
-1480 -1838 1840 0
-1840 1841 0
1449 -1840 1842 0
-1842 1843 0
1450 -1842 0
-1448 1807 0
-1807 1844 0
-1451 -1807 1809 0
-1809 1845 0
-1452 -1809 1811 0
-1811 1846 0
-1455 -1811 1813 0
-1813 1847 0
-1456 -1813 1815 0
-1815 1848 0
-1459 -1815 1817 0
-1817 1849 0
-1460 -1817 1819 0
-1819 1850 0
-1463 -1819 1821 0
-1821 1851 0
-1464 -1821 1823 0
-1823 1852 0
-1467 -1823 1825 0
-1825 1853 0
-1468 -1825 1827 0
-1827 1854 0
-1471 -1827 1829 0
-1829 1855 0
-1472 -1829 1831 0
-1831 1856 0
-1475 -1831 1833 0
-1833 1857 0
-1476 -1833 1835 0
-1835 1858 0
-1479 -1835 1837 0
-1837 1859 0
-1480 -1837 1839 0
-1839 1860 0
1449 -1839 1841 0
-1841 1861 0
1450 -1841 1843 0
-1843 1862 0
1453 -1843 0
-1451 1844 0
-1844 1863 0
-1452 -1844 1845 0
-1845 1864 0
-1455 -1845 1846 0
-1846 1865 0
-1456 -1846 1847 0
-1847 1866 0
-1459 -1847 1848 0
-1848 1867 0
-1460 -1848 1849 0
-1849 1868 0
-1463 -1849 1850 0
-1850 1869 0
-1464 -1850 1851 0
-1851 1870 0
-1467 -1851 1852 0
-1852 1871 0
-1468 -1852 1853 0
-1853 1872 0
-1471 -1853 1854 0
-1854 1873 0
-1472 -1854 1855 0
-1855 1874 0
-1475 -1855 1856 0
-1856 1875 0
-1476 -1856 1857 0
-1857 1876 0
-1479 -1857 1858 0
-1858 1877 0
-1480 -1858 1859 0
-1859 1878 0
1449 -1859 1860 0
-1860 1879 0
1450 -1860 1861 0
-1861 1880 0
1453 -1861 1862 0
-1862 1881 0
1454 -1862 0
-1452 1863 0
-1863 1882 0
-1455 -1863 1864 0
-1864 1883 0
-1456 -1864 1865 0
-1865 1884 0
-1459 -1865 1866 0
-1866 1885 0
-1460 -1866 1867 0
-1867 1886 0
-1463 -1867 1868 0
-1868 1887 0
-1464 -1868 1869 0
-1869 1888 0
-1467 -1869 1870 0
-1870 1889 0
-1468 -1870 1871 0
-1871 1890 0
-1471 -1871 1872 0
-1872 1891 0
-1472 -1872 1873 0
-1873 1892 0
-1475 -1873 1874 0
-1874 1893 0
-1476 -1874 1875 0
-1875 1894 0
-1479 -1875 1876 0
-1876 1895 0
-1480 -1876 1877 0
-1877 1896 0
1449 -1877 1878 0
-1878 1897 0
1450 -1878 1879 0
-1879 1898 0
1453 -1879 1880 0
-1880 1899 0
1454 -1880 1881 0
-1881 1900 0
1457 -1881 0
-1455 1882 0
-1882 1901 0
-1456 -1882 1883 0
-1883 1902 0
-1459 -1883 1884 0
-1884 1903 0
-1460 -1884 1885 0
-1885 1904 0
-1463 -1885 1886 0
-1886 1905 0
-1464 -1886 1887 0
-1887 1906 0
-1467 -1887 1888 0
-1888 1907 0
-1468 -1888 1889 0
-1889 1908 0
-1471 -1889 1890 0
-1890 1909 0
-1472 -1890 1891 0
-1891 1910 0
-1475 -1891 1892 0
-1892 1911 0
-1476 -1892 1893 0
-1893 1912 0
-1479 -1893 1894 0
-1894 1913 0
-1480 -1894 1895 0
-1895 1914 0
1449 -1895 1896 0
-1896 1915 0
1450 -1896 1897 0
-1897 1916 0
1453 -1897 1898 0
-1898 1917 0
1454 -1898 1899 0
-1899 1918 0
1457 -1899 1900 0
-1900 1919 0
1458 -1900 0
-1456 1901 0
-1901 1920 0
-1459 -1901 1902 0
-1902 1921 0
-1460 -1902 1903 0
-1903 1922 0
-1463 -1903 1904 0
-1904 1923 0
-1464 -1904 1905 0
-1905 1924 0
-1467 -1905 1906 0
-1906 1925 0
-1468 -1906 1907 0
-1907 1926 0
-1471 -1907 1908 0
-1908 1927 0
-1472 -1908 1909 0
-1909 1928 0
-1475 -1909 1910 0
-1910 1929 0
-1476 -1910 1911 0
-1911 1930 0
-1479 -1911 1912 0
-1912 1931 0
-1480 -1912 1913 0
-1913 1932 0
1449 -1913 1914 0
-1914 1933 0
1450 -1914 1915 0
-1915 1934 0
1453 -1915 1916 0
-1916 1935 0
1454 -1916 1917 0
-1917 1936 0
1457 -1917 1918 0
-1918 1937 0
1458 -1918 1919 0
-1919 1938 0
1461 -1919 0
-1459 1920 0
-1920 1939 0
-1460 -1920 1921 0
-1921 1940 0
-1463 -1921 1922 0
-1922 1941 0
-1464 -1922 1923 0
-1923 1942 0
-1467 -1923 1924 0
-1924 1943 0
-1468 -1924 1925 0
-1925 1944 0
-1471 -1925 1926 0
-1926 1945 0
-1472 -1926 1927 0
-1927 1946 0
-1475 -1927 1928 0
-1928 1947 0
-1476 -1928 1929 0
-1929 1948 0
-1479 -1929 1930 0
-1930 1949 0
-1480 -1930 1931 0
-1931 1950 0
1449 -1931 1932 0
-1932 1951 0
1450 -1932 1933 0
-1933 1952 0
1453 -1933 1934 0
-1934 1953 0
1454 -1934 1935 0
-1935 1954 0
1457 -1935 1936 0
-1936 1955 0
1458 -1936 1937 0
-1937 1956 0
1461 -1937 1938 0
-1938 1957 0
1462 -1938 0
-1460 1939 0
-1939 1958 0
-1463 -1939 1940 0
-1940 1959 0
-1464 -1940 1941 0
-1941 1960 0
-1467 -1941 1942 0
-1942 1961 0
-1468 -1942 1943 0
-1943 1962 0
-1471 -1943 1944 0
-1944 1963 0
-1472 -1944 1945 0
-1945 1964 0
-1475 -1945 1946 0
-1946 1965 0
-1476 -1946 1947 0
-1947 1966 0
-1479 -1947 1948 0
-1948 1967 0
-1480 -1948 1949 0
-1949 1968 0
1449 -1949 1950 0
-1950 1969 0
1450 -1950 1951 0
-1951 1970 0
1453 -1951 1952 0
-1952 1971 0
1454 -1952 1953 0
-1953 1972 0
1457 -1953 1954 0
-1954 1973 0
1458 -1954 1955 0
-1955 1974 0
1461 -1955 1956 0
-1956 1975 0
1462 -1956 1957 0
-1957 1976 0
1465 -1957 0
-1463 1958 0
-1958 1977 0
-1464 -1958 1959 0
-1959 1978 0
-1467 -1959 1960 0
-1960 1979 0
-1468 -1960 1961 0
-1961 1980 0
-1471 -1961 1962 0
-1962 1981 0
-1472 -1962 1963 0
-1963 1982 0
-1475 -1963 1964 0
-1964 1983 0
-1476 -1964 1965 0
-1965 1984 0
-1479 -1965 1966 0
-1966 1985 0
-1480 -1966 1967 0
-1967 1986 0
1449 -1967 1968 0
-1968 1987 0
1450 -1968 1969 0
-1969 1988 0
1453 -1969 1970 0
-1970 1989 0
1454 -1970 1971 0
-1971 1990 0
1457 -1971 1972 0
-1972 1991 0
1458 -1972 1973 0
-1973 1992 0
1461 -1973 1974 0
-1974 1993 0
1462 -1974 1975 0
-1975 1994 0
1465 -1975 1976 0
-1976 1995 0
1466 -1976 0
-1464 1977 0
-1977 1996 0
-1467 -1977 1978 0
-1978 1997 0
-1468 -1978 1979 0
-1979 1998 0
-1471 -1979 1980 0
-1980 1999 0
-1472 -1980 1981 0
-1981 2000 0
-1475 -1981 1982 0
-1982 2001 0
-1476 -1982 1983 0
-1983 2002 0
-1479 -1983 1984 0
-1984 2003 0
-1480 -1984 1985 0
-1985 2004 0
1449 -1985 1986 0
-1986 2005 0
1450 -1986 1987 0
-1987 2006 0
1453 -1987 1988 0
-1988 2007 0
1454 -1988 1989 0
-1989 2008 0
1457 -1989 1990 0
-1990 2009 0
1458 -1990 1991 0
-1991 2010 0
1461 -1991 1992 0
-1992 2011 0
1462 -1992 1993 0
-1993 2012 0
1465 -1993 1994 0
-1994 2013 0
1466 -1994 1995 0
-1995 2014 0
1469 -1995 0
-1467 1996 0
-1996 2015 0
-1468 -1996 1997 0
-1997 2016 0
-1471 -1997 1998 0
-1998 2017 0
-1472 -1998 1999 0
-1999 2018 0
-1475 -1999 2000 0
-2000 2019 0
-1476 -2000 2001 0
-2001 2020 0
-1479 -2001 2002 0
-2002 2021 0
-1480 -2002 2003 0
-2003 2022 0
1449 -2003 2004 0
-2004 2023 0
1450 -2004 2005 0
-2005 2024 0
1453 -2005 2006 0
-2006 2025 0
1454 -2006 2007 0
-2007 2026 0
1457 -2007 2008 0
-2008 2027 0
1458 -2008 2009 0
-2009 2028 0
1461 -2009 2010 0
-2010 2029 0
1462 -2010 2011 0
-2011 2030 0
1465 -2011 2012 0
-2012 2031 0
1466 -2012 2013 0
-2013 2032 0
1469 -2013 2014 0
-2014 2033 0
1470 -2014 0
-1468 2015 0
-2015 2034 0
-1471 -2015 2016 0
-2016 2035 0
-1472 -2016 2017 0
-2017 2036 0
-1475 -2017 2018 0
-2018 2037 0
-1476 -2018 2019 0
-2019 2038 0
-1479 -2019 2020 0
-2020 2039 0
-1480 -2020 2021 0
-2021 2040 0
1449 -2021 2022 0
-2022 2041 0
1450 -2022 2023 0
-2023 2042 0
1453 -2023 2024 0
-2024 2043 0
1454 -2024 2025 0
-2025 2044 0
1457 -2025 2026 0
-2026 2045 0
1458 -2026 2027 0
-2027 2046 0
1461 -2027 2028 0
-2028 2047 0
1462 -2028 2029 0
-2029 2048 0
1465 -2029 2030 0
-2030 2049 0
1466 -2030 2031 0
-2031 2050 0
1469 -2031 2032 0
-2032 2051 0
1470 -2032 2033 0
-2033 2052 0
1473 -2033 0
-1471 2034 0
-2034 2053 0
-1472 -2034 2035 0
-2035 2054 0
-1475 -2035 2036 0
-2036 2055 0
-1476 -2036 2037 0
-2037 2056 0
-1479 -2037 2038 0
-2038 2057 0
-1480 -2038 2039 0
-2039 2058 0
1449 -2039 2040 0
-2040 2059 0
1450 -2040 2041 0
-2041 2060 0
1453 -2041 2042 0
-2042 2061 0
1454 -2042 2043 0
-2043 2062 0
1457 -2043 2044 0
-2044 2063 0
1458 -2044 2045 0
-2045 2064 0
1461 -2045 2046 0
-2046 2065 0
1462 -2046 2047 0
-2047 2066 0
1465 -2047 2048 0
-2048 2067 0
1466 -2048 2049 0
-2049 2068 0
1469 -2049 2050 0
-2050 2069 0
1470 -2050 2051 0
-2051 2070 0
1473 -2051 2052 0
-2052 2071 0
1474 -2052 0
-1472 2053 0
-2053 2072 0
-1475 -2053 2054 0
-2054 2073 0
-1476 -2054 2055 0
-2055 2074 0
-1479 -2055 2056 0
-2056 2075 0
-1480 -2056 2057 0
-2057 2076 0
1449 -2057 2058 0
-2058 2077 0
1450 -2058 2059 0
-2059 2078 0
1453 -2059 2060 0
-2060 2079 0
1454 -2060 2061 0
-2061 2080 0
1457 -2061 2062 0
-2062 2081 0
1458 -2062 2063 0
-2063 2082 0
1461 -2063 2064 0
-2064 2083 0
1462 -2064 2065 0
-2065 2084 0
1465 -2065 2066 0
-2066 2085 0
1466 -2066 2067 0
-2067 2086 0
1469 -2067 2068 0
-2068 2087 0
1470 -2068 2069 0
-2069 2088 0
1473 -2069 2070 0
-2070 2089 0
1474 -2070 2071 0
-2071 2090 0
1477 -2071 0
-1475 2072 0
-2072 2091 0
-1476 -2072 2073 0
-2073 2092 0
-1479 -2073 2074 0
-2074 2093 0
-1480 -2074 2075 0
-2075 2094 0
1449 -2075 2076 0
-2076 2095 0
1450 -2076 2077 0
-2077 2096 0
1453 -2077 2078 0
-2078 2097 0
1454 -2078 2079 0
-2079 2098 0
1457 -2079 2080 0
-2080 2099 0
1458 -2080 2081 0
-2081 2100 0
1461 -2081 2082 0
-2082 2101 0
1462 -2082 2083 0
-2083 2102 0
1465 -2083 2084 0
-2084 2103 0
1466 -2084 2085 0
-2085 2104 0
1469 -2085 2086 0
-2086 2105 0
1470 -2086 2087 0
-2087 2106 0
1473 -2087 2088 0
-2088 2107 0
1474 -2088 2089 0
-2089 2108 0
1477 -2089 2090 0
-2090 2109 0
1478 -2090 0
-1476 2091 0
-2091 2110 0
-1479 -2091 2092 0
-2092 2111 0
-1480 -2092 2093 0
-2093 2112 0
1449 -2093 2094 0
-2094 2113 0
1450 -2094 2095 0
-2095 2114 0
1453 -2095 2096 0
-2096 2115 0
1454 -2096 2097 0
-2097 2116 0
1457 -2097 2098 0
-2098 2117 0
1458 -2098 2099 0
-2099 2118 0
1461 -2099 2100 0
-2100 2119 0
1462 -2100 2101 0
-2101 2120 0
1465 -2101 2102 0
-2102 2121 0
1466 -2102 2103 0
-2103 2122 0
1469 -2103 2104 0
-2104 2123 0
1470 -2104 2105 0
-2105 2124 0
1473 -2105 2106 0
-2106 2125 0
1474 -2106 2107 0
-2107 2126 0
1477 -2107 2108 0
-2108 2127 0
1478 -2108 2109 0
-2109 2128 0
1481 -2109 0
-1479 2110 0
-1480 -2110 2111 0
1449 -2111 2112 0
1450 -2112 2113 0
1453 -2113 2114 0
1454 -2114 2115 0
1457 -2115 2116 0
1458 -2116 2117 0
1461 -2117 2118 0
1462 -2118 2119 0
1465 -2119 2120 0
1466 -2120 2121 0
1469 -2121 2122 0
1470 -2122 2123 0
1473 -2123 2124 0
1474 -2124 2125 0
1477 -2125 2126 0
1478 -2126 2127 0
1481 -2127 2128 0
1482 -2128 0
-2129 1 0
-2129 9 0
2129 -1 -9 0
-2130 10 0
-2130 18 0
2130 -10 -18 0
-2131 1 0
-2131 18 0
2131 -1 -18 0
-2132 10 0
-2132 9 0
2132 -10 -9 0
-2133 2 0
-2133 7 0
2133 -2 -7 0
-2134 11 0
-2134 16 0
2134 -11 -16 0
-2135 2 0
-2135 16 0
2135 -2 -16 0
-2136 11 0
-2136 7 0
2136 -11 -7 0
-2137 3 0
-2137 8 0
2137 -3 -8 0
-2138 12 0
-2138 17 0
2138 -12 -17 0
-2139 3 0
-2139 17 0
2139 -3 -17 0
-2140 12 0
-2140 8 0
2140 -12 -8 0
-2141 4 0
-2141 3 0
2141 -4 -3 0
-2142 13 0
-2142 12 0
2142 -13 -12 0
-2143 4 0
-2143 12 0
2143 -4 -12 0
-2144 13 0
-2144 3 0
2144 -13 -3 0
-2145 5 0
-2145 1 0
2145 -5 -1 0
-2146 14 0
-2146 10 0
2146 -14 -10 0
-2147 5 0
-2147 10 0
2147 -5 -10 0
-2148 14 0
-2148 1 0
2148 -14 -1 0
-2149 6 0
-2149 2 0
2149 -6 -2 0
-2150 15 0
-2150 11 0
2150 -15 -11 0
-2151 6 0
-2151 11 0
2151 -6 -11 0
-2152 15 0
-2152 2 0
2152 -15 -2 0
-2153 7 0
-2153 6 0
2153 -7 -6 0
-2154 16 0
-2154 15 0
2154 -16 -15 0
-2155 7 0
-2155 15 0
2155 -7 -15 0
-2156 16 0
-2156 6 0
2156 -16 -6 0
-2157 8 0
-2157 4 0
2157 -8 -4 0
-2158 17 0
-2158 13 0
2158 -17 -13 0
-2159 8 0
-2159 13 0
2159 -8 -13 0
-2160 17 0
-2160 4 0
2160 -17 -4 0
-2161 9 0
-2161 5 0
2161 -9 -5 0
-2162 18 0
-2162 14 0
2162 -18 -14 0
-2163 9 0
-2163 14 0
2163 -9 -14 0
-2164 18 0
-2164 5 0
2164 -18 -5 0
2129 2165 0
-2165 2166 0
2130 -2165 2167 0
-2167 2168 0
2133 -2167 2169 0
-2169 2170 0
2134 -2169 2171 0
-2171 2172 0
2137 -2171 2173 0
-2173 2174 0
2138 -2173 2175 0
-2175 2176 0
2141 -2175 2177 0
-2177 2178 0
2142 -2177 2179 0
-2179 2180 0
2145 -2179 2181 0
-2181 2182 0
2146 -2181 2183 0
-2183 2184 0
2149 -2183 2185 0
-2185 2186 0
2150 -2185 2187 0
-2187 2188 0
2153 -2187 2189 0
-2189 2190 0
2154 -2189 2191 0
-2191 2192 0
2157 -2191 2193 0
-2193 2194 0
2158 -2193 2195 0
-2195 2196 0
2161 -2195 2197 0
-2197 2198 0
2162 -2197 0
2130 2166 0
-2166 2199 0
2133 -2166 2168 0
-2168 2200 0
2134 -2168 2170 0
-2170 2201 0
2137 -2170 2172 0
-2172 2202 0
2138 -2172 2174 0
-2174 2203 0
2141 -2174 2176 0
-2176 2204 0
2142 -2176 2178 0
-2178 2205 0
2145 -2178 2180 0
-2180 2206 0
2146 -2180 2182 0
-2182 2207 0
2149 -2182 2184 0
-2184 2208 0
2150 -2184 2186 0
-2186 2209 0
2153 -2186 2188 0
-2188 2210 0
2154 -2188 2190 0
-2190 2211 0
2157 -2190 2192 0
-2192 2212 0
2158 -2192 2194 0
-2194 2213 0
2161 -2194 2196 0
-2196 2214 0
2162 -2196 2198 0
-2198 2215 0
-2131 -2198 0
2133 2199 0
-2199 2216 0
2134 -2199 2200 0
-2200 2217 0
2137 -2200 2201 0
-2201 2218 0
2138 -2201 2202 0
-2202 2219 0
2141 -2202 2203 0
-2203 2220 0
2142 -2203 2204 0
-2204 2221 0
2145 -2204 2205 0
-2205 2222 0
2146 -2205 2206 0
-2206 2223 0
2149 -2206 2207 0
-2207 2224 0
2150 -2207 2208 0
-2208 2225 0
2153 -2208 2209 0
-2209 2226 0
2154 -2209 2210 0
-2210 2227 0
2157 -2210 2211 0
-2211 2228 0
2158 -2211 2212 0
-2212 2229 0
2161 -2212 2213 0
-2213 2230 0
2162 -2213 2214 0
-2214 2231 0
-2131 -2214 2215 0
-2215 2232 0
-2132 -2215 0
2134 2216 0
-2216 2233 0
2137 -2216 2217 0
-2217 2234 0
2138 -2217 2218 0
-2218 2235 0
2141 -2218 2219 0
-2219 2236 0
2142 -2219 2220 0
-2220 2237 0
2145 -2220 2221 0
-2221 2238 0
2146 -2221 2222 0
-2222 2239 0
2149 -2222 2223 0
-2223 2240 0
2150 -2223 2224 0
-2224 2241 0
2153 -2224 2225 0
-2225 2242 0
2154 -2225 2226 0
-2226 2243 0
2157 -2226 2227 0
-2227 2244 0
2158 -2227 2228 0
-2228 2245 0
2161 -2228 2229 0
-2229 2246 0
2162 -2229 2230 0
-2230 2247 0
-2131 -2230 2231 0
-2231 2248 0
-2132 -2231 2232 0
-2232 2249 0
-2135 -2232 0
2137 2233 0
-2233 2250 0
2138 -2233 2234 0
-2234 2251 0
2141 -2234 2235 0
-2235 2252 0
2142 -2235 2236 0
-2236 2253 0
2145 -2236 2237 0
-2237 2254 0
2146 -2237 2238 0
-2238 2255 0
2149 -2238 2239 0
-2239 2256 0
2150 -2239 2240 0
-2240 2257 0
2153 -2240 2241 0
-2241 2258 0
2154 -2241 2242 0
-2242 2259 0
2157 -2242 2243 0
-2243 2260 0
2158 -2243 2244 0
-2244 2261 0
2161 -2244 2245 0
-2245 2262 0
2162 -2245 2246 0
-2246 2263 0
-2131 -2246 2247 0
-2247 2264 0
-2132 -2247 2248 0
-2248 2265 0
-2135 -2248 2249 0
-2249 2266 0
-2136 -2249 0
2138 2250 0
-2250 2267 0
2141 -2250 2251 0
-2251 2268 0
2142 -2251 2252 0
-2252 2269 0
2145 -2252 2253 0
-2253 2270 0
2146 -2253 2254 0
-2254 2271 0
2149 -2254 2255 0
-2255 2272 0
2150 -2255 2256 0
-2256 2273 0
2153 -2256 2257 0
-2257 2274 0
2154 -2257 2258 0
-2258 2275 0
2157 -2258 2259 0
-2259 2276 0
2158 -2259 2260 0
-2260 2277 0
2161 -2260 2261 0
-2261 2278 0
2162 -2261 2262 0
-2262 2279 0
-2131 -2262 2263 0
-2263 2280 0
-2132 -2263 2264 0
-2264 2281 0
-2135 -2264 2265 0
-2265 2282 0
-2136 -2265 2266 0
-2266 2283 0
-2139 -2266 0
2141 2267 0
-2267 2284 0
2142 -2267 2268 0
-2268 2285 0
2145 -2268 2269 0
-2269 2286 0
2146 -2269 2270 0
-2270 2287 0
2149 -2270 2271 0
-2271 2288 0
2150 -2271 2272 0
-2272 2289 0
2153 -2272 2273 0
-2273 2290 0
2154 -2273 2274 0
-2274 2291 0
2157 -2274 2275 0
-2275 2292 0
2158 -2275 2276 0
-2276 2293 0
2161 -2276 2277 0
-2277 2294 0
2162 -2277 2278 0
-2278 2295 0
-2131 -2278 2279 0
-2279 2296 0
-2132 -2279 2280 0
-2280 2297 0
-2135 -2280 2281 0
-2281 2298 0
-2136 -2281 2282 0
-2282 2299 0
-2139 -2282 2283 0
-2283 2300 0
-2140 -2283 0
2142 2284 0
-2284 2301 0
2145 -2284 2285 0
-2285 2302 0
2146 -2285 2286 0
-2286 2303 0
2149 -2286 2287 0
-2287 2304 0
2150 -2287 2288 0
-2288 2305 0
2153 -2288 2289 0
-2289 2306 0
2154 -2289 2290 0
-2290 2307 0
2157 -2290 2291 0
-2291 2308 0
2158 -2291 2292 0
-2292 2309 0
2161 -2292 2293 0
-2293 2310 0
2162 -2293 2294 0
-2294 2311 0
-2131 -2294 2295 0
-2295 2312 0
-2132 -2295 2296 0
-2296 2313 0
-2135 -2296 2297 0
-2297 2314 0
-2136 -2297 2298 0
-2298 2315 0
-2139 -2298 2299 0
-2299 2316 0
-2140 -2299 2300 0
-2300 2317 0
-2143 -2300 0
2145 2301 0
-2301 2318 0
2146 -2301 2302 0
-2302 2319 0
2149 -2302 2303 0
-2303 2320 0
2150 -2303 2304 0
-2304 2321 0
2153 -2304 2305 0
-2305 2322 0
2154 -2305 2306 0
-2306 2323 0
2157 -2306 2307 0
-2307 2324 0
2158 -2307 2308 0
-2308 2325 0
2161 -2308 2309 0
-2309 2326 0
2162 -2309 2310 0
-2310 2327 0
-2131 -2310 2311 0
-2311 2328 0
-2132 -2311 2312 0
-2312 2329 0
-2135 -2312 2313 0
-2313 2330 0
-2136 -2313 2314 0
-2314 2331 0
-2139 -2314 2315 0
-2315 2332 0
-2140 -2315 2316 0
-2316 2333 0
-2143 -2316 2317 0
-2317 2334 0
-2144 -2317 0
2146 2318 0
-2318 2335 0
2149 -2318 2319 0
-2319 2336 0
2150 -2319 2320 0
-2320 2337 0
2153 -2320 2321 0
-2321 2338 0
2154 -2321 2322 0
-2322 2339 0
2157 -2322 2323 0
-2323 2340 0
2158 -2323 2324 0
-2324 2341 0
2161 -2324 2325 0
-2325 2342 0
2162 -2325 2326 0
-2326 2343 0
-2131 -2326 2327 0
-2327 2344 0
-2132 -2327 2328 0
-2328 2345 0
-2135 -2328 2329 0
-2329 2346 0
-2136 -2329 2330 0
-2330 2347 0
-2139 -2330 2331 0
-2331 2348 0
-2140 -2331 2332 0
-2332 2349 0
-2143 -2332 2333 0
-2333 2350 0
-2144 -2333 2334 0
-2334 2351 0
-2147 -2334 0
2149 2335 0
-2335 2352 0
2150 -2335 2336 0
-2336 2353 0
2153 -2336 2337 0
-2337 2354 0
2154 -2337 2338 0
-2338 2355 0
2157 -2338 2339 0
-2339 2356 0
2158 -2339 2340 0
-2340 2357 0
2161 -2340 2341 0
-2341 2358 0
2162 -2341 2342 0
-2342 2359 0
-2131 -2342 2343 0
-2343 2360 0
-2132 -2343 2344 0
-2344 2361 0
-2135 -2344 2345 0
-2345 2362 0
-2136 -2345 2346 0
-2346 2363 0
-2139 -2346 2347 0
-2347 2364 0
-2140 -2347 2348 0
-2348 2365 0
-2143 -2348 2349 0
-2349 2366 0
-2144 -2349 2350 0
-2350 2367 0
-2147 -2350 2351 0
-2351 2368 0
-2148 -2351 0
2150 2352 0
-2352 2369 0
2153 -2352 2353 0
-2353 2370 0
2154 -2353 2354 0
-2354 2371 0
2157 -2354 2355 0
-2355 2372 0
2158 -2355 2356 0
-2356 2373 0
2161 -2356 2357 0
-2357 2374 0
2162 -2357 2358 0
-2358 2375 0
-2131 -2358 2359 0
-2359 2376 0
-2132 -2359 2360 0
-2360 2377 0
-2135 -2360 2361 0
-2361 2378 0
-2136 -2361 2362 0
-2362 2379 0
-2139 -2362 2363 0
-2363 2380 0
-2140 -2363 2364 0
-2364 2381 0
-2143 -2364 2365 0
-2365 2382 0
-2144 -2365 2366 0
-2366 2383 0
-2147 -2366 2367 0
-2367 2384 0
-2148 -2367 2368 0
-2368 2385 0
-2151 -2368 0
2153 2369 0
-2369 2386 0
2154 -2369 2370 0
-2370 2387 0
2157 -2370 2371 0
-2371 2388 0
2158 -2371 2372 0
-2372 2389 0
2161 -2372 2373 0
-2373 2390 0
2162 -2373 2374 0
-2374 2391 0
-2131 -2374 2375 0
-2375 2392 0
-2132 -2375 2376 0
-2376 2393 0
-2135 -2376 2377 0
-2377 2394 0
-2136 -2377 2378 0
-2378 2395 0
-2139 -2378 2379 0
-2379 2396 0
-2140 -2379 2380 0
-2380 2397 0
-2143 -2380 2381 0
-2381 2398 0
-2144 -2381 2382 0
-2382 2399 0
-2147 -2382 2383 0
-2383 2400 0
-2148 -2383 2384 0
-2384 2401 0
-2151 -2384 2385 0
-2385 2402 0
-2152 -2385 0
2154 2386 0
-2386 2403 0
2157 -2386 2387 0
-2387 2404 0
2158 -2387 2388 0
-2388 2405 0
2161 -2388 2389 0
-2389 2406 0
2162 -2389 2390 0
-2390 2407 0
-2131 -2390 2391 0
-2391 2408 0
-2132 -2391 2392 0
-2392 2409 0
-2135 -2392 2393 0
-2393 2410 0
-2136 -2393 2394 0
-2394 2411 0
-2139 -2394 2395 0
-2395 2412 0
-2140 -2395 2396 0
-2396 2413 0
-2143 -2396 2397 0
-2397 2414 0
-2144 -2397 2398 0
-2398 2415 0
-2147 -2398 2399 0
-2399 2416 0
-2148 -2399 2400 0
-2400 2417 0
-2151 -2400 2401 0
-2401 2418 0
-2152 -2401 2402 0
-2402 2419 0
-2155 -2402 0
2157 2403 0
-2403 2420 0
2158 -2403 2404 0
-2404 2421 0
2161 -2404 2405 0
-2405 2422 0
2162 -2405 2406 0
-2406 2423 0
-2131 -2406 2407 0
-2407 2424 0
-2132 -2407 2408 0
-2408 2425 0
-2135 -2408 2409 0
-2409 2426 0
-2136 -2409 2410 0
-2410 2427 0
-2139 -2410 2411 0
-2411 2428 0
-2140 -2411 2412 0
-2412 2429 0
-2143 -2412 2413 0
-2413 2430 0
-2144 -2413 2414 0
-2414 2431 0
-2147 -2414 2415 0
-2415 2432 0
-2148 -2415 2416 0
-2416 2433 0
-2151 -2416 2417 0
-2417 2434 0
-2152 -2417 2418 0
-2418 2435 0
-2155 -2418 2419 0
-2419 2436 0
-2156 -2419 0
2158 2420 0
-2420 2437 0
2161 -2420 2421 0
-2421 2438 0
2162 -2421 2422 0
-2422 2439 0
-2131 -2422 2423 0
-2423 2440 0
-2132 -2423 2424 0
-2424 2441 0
-2135 -2424 2425 0
-2425 2442 0
-2136 -2425 2426 0
-2426 2443 0
-2139 -2426 2427 0
-2427 2444 0
-2140 -2427 2428 0
-2428 2445 0
-2143 -2428 2429 0
-2429 2446 0
-2144 -2429 2430 0
-2430 2447 0
-2147 -2430 2431 0
-2431 2448 0
-2148 -2431 2432 0
-2432 2449 0
-2151 -2432 2433 0
-2433 2450 0
-2152 -2433 2434 0
-2434 2451 0
-2155 -2434 2435 0
-2435 2452 0
-2156 -2435 2436 0
-2436 2453 0
-2159 -2436 0
2161 2437 0
-2437 2454 0
2162 -2437 2438 0
-2438 2455 0
-2131 -2438 2439 0
-2439 2456 0
-2132 -2439 2440 0
-2440 2457 0
-2135 -2440 2441 0
-2441 2458 0
-2136 -2441 2442 0
-2442 2459 0
-2139 -2442 2443 0
-2443 2460 0
-2140 -2443 2444 0
-2444 2461 0
-2143 -2444 2445 0
-2445 2462 0
-2144 -2445 2446 0
-2446 2463 0
-2147 -2446 2447 0
-2447 2464 0
-2148 -2447 2448 0
-2448 2465 0
-2151 -2448 2449 0
-2449 2466 0
-2152 -2449 2450 0
-2450 2467 0
-2155 -2450 2451 0
-2451 2468 0
-2156 -2451 2452 0
-2452 2469 0
-2159 -2452 2453 0
-2453 2470 0
-2160 -2453 0
2162 2454 0
-2454 2471 0
-2131 -2454 2455 0
-2455 2472 0
-2132 -2455 2456 0
-2456 2473 0
-2135 -2456 2457 0
-2457 2474 0
-2136 -2457 2458 0
-2458 2475 0
-2139 -2458 2459 0
-2459 2476 0
-2140 -2459 2460 0
-2460 2477 0
-2143 -2460 2461 0
-2461 2478 0
-2144 -2461 2462 0
-2462 2479 0
-2147 -2462 2463 0
-2463 2480 0
-2148 -2463 2464 0
-2464 2481 0
-2151 -2464 2465 0
-2465 2482 0
-2152 -2465 2466 0
-2466 2483 0
-2155 -2466 2467 0
-2467 2484 0
-2156 -2467 2468 0
-2468 2485 0
-2159 -2468 2469 0
-2469 2486 0
-2160 -2469 2470 0
-2470 2487 0
-2163 -2470 0
-2131 2471 0
-2132 -2471 2472 0
-2135 -2472 2473 0
-2136 -2473 2474 0
-2139 -2474 2475 0
-2140 -2475 2476 0
-2143 -2476 2477 0
-2144 -2477 2478 0
-2147 -2478 2479 0
-2148 -2479 2480 0
-2151 -2480 2481 0
-2152 -2481 2482 0
-2155 -2482 2483 0
-2156 -2483 2484 0
-2159 -2484 2485 0
-2160 -2485 2486 0
-2163 -2486 2487 0
-2164 -2487 0
-2129 2488 0
-2488 2489 0
-2130 -2488 2490 0
-2490 2491 0
-2133 -2490 2492 0
-2492 2493 0
-2134 -2492 2494 0
-2494 2495 0
-2137 -2494 2496 0
-2496 2497 0
-2138 -2496 2498 0
-2498 2499 0
-2141 -2498 2500 0
-2500 2501 0
-2142 -2500 2502 0
-2502 2503 0
-2145 -2502 2504 0
-2504 2505 0
-2146 -2504 2506 0
-2506 2507 0
-2149 -2506 2508 0
-2508 2509 0
-2150 -2508 2510 0
-2510 2511 0
-2153 -2510 2512 0
-2512 2513 0
-2154 -2512 2514 0
-2514 2515 0
-2157 -2514 2516 0
-2516 2517 0
-2158 -2516 2518 0
-2518 2519 0
-2161 -2518 2520 0
-2520 2521 0
-2162 -2520 2522 0
-2522 2523 0
2131 -2522 2524 0
-2524 2525 0
2132 -2524 0
-2130 2489 0
-2489 2526 0
-2133 -2489 2491 0
-2491 2527 0
-2134 -2491 2493 0
-2493 2528 0
-2137 -2493 2495 0
-2495 2529 0
-2138 -2495 2497 0
-2497 2530 0
-2141 -2497 2499 0
-2499 2531 0
-2142 -2499 2501 0
-2501 2532 0
-2145 -2501 2503 0
-2503 2533 0
-2146 -2503 2505 0
-2505 2534 0
-2149 -2505 2507 0
-2507 2535 0
-2150 -2507 2509 0
-2509 2536 0
-2153 -2509 2511 0
-2511 2537 0
-2154 -2511 2513 0
-2513 2538 0
-2157 -2513 2515 0
-2515 2539 0
-2158 -2515 2517 0
-2517 2540 0
-2161 -2517 2519 0
-2519 2541 0
-2162 -2519 2521 0
-2521 2542 0
2131 -2521 2523 0
-2523 2543 0
2132 -2523 2525 0
-2525 2544 0
2135 -2525 0
-2133 2526 0
-2526 2545 0
-2134 -2526 2527 0
-2527 2546 0
-2137 -2527 2528 0
-2528 2547 0
-2138 -2528 2529 0
-2529 2548 0
-2141 -2529 2530 0
-2530 2549 0
-2142 -2530 2531 0
-2531 2550 0
-2145 -2531 2532 0
-2532 2551 0
-2146 -2532 2533 0
-2533 2552 0
-2149 -2533 2534 0
-2534 2553 0
-2150 -2534 2535 0
-2535 2554 0
-2153 -2535 2536 0
-2536 2555 0
-2154 -2536 2537 0
-2537 2556 0
-2157 -2537 2538 0
-2538 2557 0
-2158 -2538 2539 0
-2539 2558 0
-2161 -2539 2540 0
-2540 2559 0
-2162 -2540 2541 0
-2541 2560 0
2131 -2541 2542 0
-2542 2561 0
2132 -2542 2543 0
-2543 2562 0
2135 -2543 2544 0
-2544 2563 0
2136 -2544 0
-2134 2545 0
-2545 2564 0
-2137 -2545 2546 0
-2546 2565 0
-2138 -2546 2547 0
-2547 2566 0
-2141 -2547 2548 0
-2548 2567 0
-2142 -2548 2549 0
-2549 2568 0
-2145 -2549 2550 0
-2550 2569 0
-2146 -2550 2551 0
-2551 2570 0
-2149 -2551 2552 0
-2552 2571 0
-2150 -2552 2553 0
-2553 2572 0
-2153 -2553 2554 0
-2554 2573 0
-2154 -2554 2555 0
-2555 2574 0
-2157 -2555 2556 0
-2556 2575 0
-2158 -2556 2557 0
-2557 2576 0
-2161 -2557 2558 0
-2558 2577 0
-2162 -2558 2559 0
-2559 2578 0
2131 -2559 2560 0
-2560 2579 0
2132 -2560 2561 0
-2561 2580 0
2135 -2561 2562 0
-2562 2581 0
2136 -2562 2563 0
-2563 2582 0
2139 -2563 0
-2137 2564 0
-2564 2583 0
-2138 -2564 2565 0
-2565 2584 0
-2141 -2565 2566 0
-2566 2585 0
-2142 -2566 2567 0
-2567 2586 0
-2145 -2567 2568 0
-2568 2587 0
-2146 -2568 2569 0
-2569 2588 0
-2149 -2569 2570 0
-2570 2589 0
-2150 -2570 2571 0
-2571 2590 0
-2153 -2571 2572 0
-2572 2591 0
-2154 -2572 2573 0
-2573 2592 0
-2157 -2573 2574 0
-2574 2593 0
-2158 -2574 2575 0
-2575 2594 0
-2161 -2575 2576 0
-2576 2595 0
-2162 -2576 2577 0
-2577 2596 0
2131 -2577 2578 0
-2578 2597 0
2132 -2578 2579 0
-2579 2598 0
2135 -2579 2580 0
-2580 2599 0
2136 -2580 2581 0
-2581 2600 0
2139 -2581 2582 0
-2582 2601 0
2140 -2582 0
-2138 2583 0
-2583 2602 0
-2141 -2583 2584 0
-2584 2603 0
-2142 -2584 2585 0
-2585 2604 0
-2145 -2585 2586 0
-2586 2605 0
-2146 -2586 2587 0
-2587 2606 0
-2149 -2587 2588 0
-2588 2607 0
-2150 -2588 2589 0
-2589 2608 0
-2153 -2589 2590 0
-2590 2609 0
-2154 -2590 2591 0
-2591 2610 0
-2157 -2591 2592 0
-2592 2611 0
-2158 -2592 2593 0
-2593 2612 0
-2161 -2593 2594 0
-2594 2613 0
-2162 -2594 2595 0
-2595 2614 0
2131 -2595 2596 0
-2596 2615 0
2132 -2596 2597 0
-2597 2616 0
2135 -2597 2598 0
-2598 2617 0
2136 -2598 2599 0
-2599 2618 0
2139 -2599 2600 0
-2600 2619 0
2140 -2600 2601 0
-2601 2620 0
2143 -2601 0
-2141 2602 0
-2602 2621 0
-2142 -2602 2603 0
-2603 2622 0
-2145 -2603 2604 0
-2604 2623 0
-2146 -2604 2605 0
-2605 2624 0
-2149 -2605 2606 0
-2606 2625 0
-2150 -2606 2607 0
-2607 2626 0
-2153 -2607 2608 0
-2608 2627 0
-2154 -2608 2609 0
-2609 2628 0
-2157 -2609 2610 0
-2610 2629 0
-2158 -2610 2611 0
-2611 2630 0
-2161 -2611 2612 0
-2612 2631 0
-2162 -2612 2613 0
-2613 2632 0
2131 -2613 2614 0
-2614 2633 0
2132 -2614 2615 0
-2615 2634 0
2135 -2615 2616 0
-2616 2635 0
2136 -2616 2617 0
-2617 2636 0
2139 -2617 2618 0
-2618 2637 0
2140 -2618 2619 0
-2619 2638 0
2143 -2619 2620 0
-2620 2639 0
2144 -2620 0
-2142 2621 0
-2621 2640 0
-2145 -2621 2622 0
-2622 2641 0
-2146 -2622 2623 0
-2623 2642 0
-2149 -2623 2624 0
-2624 2643 0
-2150 -2624 2625 0
-2625 2644 0
-2153 -2625 2626 0
-2626 2645 0
-2154 -2626 2627 0
-2627 2646 0
-2157 -2627 2628 0
-2628 2647 0
-2158 -2628 2629 0
-2629 2648 0
-2161 -2629 2630 0
-2630 2649 0
-2162 -2630 2631 0
-2631 2650 0
2131 -2631 2632 0
-2632 2651 0
2132 -2632 2633 0
-2633 2652 0
2135 -2633 2634 0
-2634 2653 0
2136 -2634 2635 0
-2635 2654 0
2139 -2635 2636 0
-2636 2655 0
2140 -2636 2637 0
-2637 2656 0
2143 -2637 2638 0
-2638 2657 0
2144 -2638 2639 0
-2639 2658 0
2147 -2639 0
-2145 2640 0
-2640 2659 0
-2146 -2640 2641 0
-2641 2660 0
-2149 -2641 2642 0
-2642 2661 0
-2150 -2642 2643 0
-2643 2662 0
-2153 -2643 2644 0
-2644 2663 0
-2154 -2644 2645 0
-2645 2664 0
-2157 -2645 2646 0
-2646 2665 0
-2158 -2646 2647 0
-2647 2666 0
-2161 -2647 2648 0
-2648 2667 0
-2162 -2648 2649 0
-2649 2668 0
2131 -2649 2650 0
-2650 2669 0
2132 -2650 2651 0
-2651 2670 0
2135 -2651 2652 0
-2652 2671 0
2136 -2652 2653 0
-2653 2672 0
2139 -2653 2654 0
-2654 2673 0
2140 -2654 2655 0
-2655 2674 0
2143 -2655 2656 0
-2656 2675 0
2144 -2656 2657 0
-2657 2676 0
2147 -2657 2658 0
-2658 2677 0
2148 -2658 0
-2146 2659 0
-2659 2678 0
-2149 -2659 2660 0
-2660 2679 0
-2150 -2660 2661 0
-2661 2680 0
-2153 -2661 2662 0
-2662 2681 0
-2154 -2662 2663 0
-2663 2682 0
-2157 -2663 2664 0
-2664 2683 0
-2158 -2664 2665 0
-2665 2684 0
-2161 -2665 2666 0
-2666 2685 0
-2162 -2666 2667 0
-2667 2686 0
2131 -2667 2668 0
-2668 2687 0
2132 -2668 2669 0
-2669 2688 0
2135 -2669 2670 0
-2670 2689 0
2136 -2670 2671 0
-2671 2690 0
2139 -2671 2672 0
-2672 2691 0
2140 -2672 2673 0
-2673 2692 0
2143 -2673 2674 0
-2674 2693 0
2144 -2674 2675 0
-2675 2694 0
2147 -2675 2676 0
-2676 2695 0
2148 -2676 2677 0
-2677 2696 0
2151 -2677 0
-2149 2678 0
-2678 2697 0
-2150 -2678 2679 0
-2679 2698 0
-2153 -2679 2680 0
-2680 2699 0
-2154 -2680 2681 0
-2681 2700 0
-2157 -2681 2682 0
-2682 2701 0
-2158 -2682 2683 0
-2683 2702 0
-2161 -2683 2684 0
-2684 2703 0
-2162 -2684 2685 0
-2685 2704 0
2131 -2685 2686 0
-2686 2705 0
2132 -2686 2687 0
-2687 2706 0
2135 -2687 2688 0
-2688 2707 0
2136 -2688 2689 0
-2689 2708 0
2139 -2689 2690 0
-2690 2709 0
2140 -2690 2691 0
-2691 2710 0
2143 -2691 2692 0
-2692 2711 0
2144 -2692 2693 0
-2693 2712 0
2147 -2693 2694 0
-2694 2713 0
2148 -2694 2695 0
-2695 2714 0
2151 -2695 2696 0
-2696 2715 0
2152 -2696 0
-2150 2697 0
-2697 2716 0
-2153 -2697 2698 0
-2698 2717 0
-2154 -2698 2699 0
-2699 2718 0
-2157 -2699 2700 0
-2700 2719 0
-2158 -2700 2701 0
-2701 2720 0
-2161 -2701 2702 0
-2702 2721 0
-2162 -2702 2703 0
-2703 2722 0
2131 -2703 2704 0
-2704 2723 0
2132 -2704 2705 0
-2705 2724 0
2135 -2705 2706 0
-2706 2725 0
2136 -2706 2707 0
-2707 2726 0
2139 -2707 2708 0
-2708 2727 0
2140 -2708 2709 0
-2709 2728 0
2143 -2709 2710 0
-2710 2729 0
2144 -2710 2711 0
-2711 2730 0
2147 -2711 2712 0
-2712 2731 0
2148 -2712 2713 0
-2713 2732 0
2151 -2713 2714 0
-2714 2733 0
2152 -2714 2715 0
-2715 2734 0
2155 -2715 0
-2153 2716 0
-2716 2735 0
-2154 -2716 2717 0
-2717 2736 0
-2157 -2717 2718 0
-2718 2737 0
-2158 -2718 2719 0
-2719 2738 0
-2161 -2719 2720 0
-2720 2739 0
-2162 -2720 2721 0
-2721 2740 0
2131 -2721 2722 0
-2722 2741 0
2132 -2722 2723 0
-2723 2742 0
2135 -2723 2724 0
-2724 2743 0
2136 -2724 2725 0
-2725 2744 0
2139 -2725 2726 0
-2726 2745 0
2140 -2726 2727 0
-2727 2746 0
2143 -2727 2728 0
-2728 2747 0
2144 -2728 2729 0
-2729 2748 0
2147 -2729 2730 0
-2730 2749 0
2148 -2730 2731 0
-2731 2750 0
2151 -2731 2732 0
-2732 2751 0
2152 -2732 2733 0
-2733 2752 0
2155 -2733 2734 0
-2734 2753 0
2156 -2734 0
-2154 2735 0
-2735 2754 0
-2157 -2735 2736 0
-2736 2755 0
-2158 -2736 2737 0
-2737 2756 0
-2161 -2737 2738 0
-2738 2757 0
-2162 -2738 2739 0
-2739 2758 0
2131 -2739 2740 0
-2740 2759 0
2132 -2740 2741 0
-2741 2760 0
2135 -2741 2742 0
-2742 2761 0
2136 -2742 2743 0
-2743 2762 0
2139 -2743 2744 0
-2744 2763 0
2140 -2744 2745 0
-2745 2764 0
2143 -2745 2746 0
-2746 2765 0
2144 -2746 2747 0
-2747 2766 0
2147 -2747 2748 0
-2748 2767 0
2148 -2748 2749 0
-2749 2768 0
2151 -2749 2750 0
-2750 2769 0
2152 -2750 2751 0
-2751 2770 0
2155 -2751 2752 0
-2752 2771 0
2156 -2752 2753 0
-2753 2772 0
2159 -2753 0
-2157 2754 0
-2754 2773 0
-2158 -2754 2755 0
-2755 2774 0
-2161 -2755 2756 0
-2756 2775 0
-2162 -2756 2757 0
-2757 2776 0
2131 -2757 2758 0
-2758 2777 0
2132 -2758 2759 0
-2759 2778 0
2135 -2759 2760 0
-2760 2779 0
2136 -2760 2761 0
-2761 2780 0
2139 -2761 2762 0
-2762 2781 0
2140 -2762 2763 0
-2763 2782 0
2143 -2763 2764 0
-2764 2783 0
2144 -2764 2765 0
-2765 2784 0
2147 -2765 2766 0
-2766 2785 0
2148 -2766 2767 0
-2767 2786 0
2151 -2767 2768 0
-2768 2787 0
2152 -2768 2769 0
-2769 2788 0
2155 -2769 2770 0
-2770 2789 0
2156 -2770 2771 0
-2771 2790 0
2159 -2771 2772 0
-2772 2791 0
2160 -2772 0
-2158 2773 0
-2773 2792 0
-2161 -2773 2774 0
-2774 2793 0
-2162 -2774 2775 0
-2775 2794 0
2131 -2775 2776 0
-2776 2795 0
2132 -2776 2777 0
-2777 2796 0
2135 -2777 2778 0
-2778 2797 0
2136 -2778 2779 0
-2779 2798 0
2139 -2779 2780 0
-2780 2799 0
2140 -2780 2781 0
-2781 2800 0
2143 -2781 2782 0
-2782 2801 0
2144 -2782 2783 0
-2783 2802 0
2147 -2783 2784 0
-2784 2803 0
2148 -2784 2785 0
-2785 2804 0
2151 -2785 2786 0
-2786 2805 0
2152 -2786 2787 0
-2787 2806 0
2155 -2787 2788 0
-2788 2807 0
2156 -2788 2789 0
-2789 2808 0
2159 -2789 2790 0
-2790 2809 0
2160 -2790 2791 0
-2791 2810 0
2163 -2791 0
-2161 2792 0
-2162 -2792 2793 0
2131 -2793 2794 0
2132 -2794 2795 0
2135 -2795 2796 0
2136 -2796 2797 0
2139 -2797 2798 0
2140 -2798 2799 0
2143 -2799 2800 0
2144 -2800 2801 0
2147 -2801 2802 0
2148 -2802 2803 0
2151 -2803 2804 0
2152 -2804 2805 0
2155 -2805 2806 0
2156 -2806 2807 0
2159 -2807 2808 0
2160 -2808 2809 0
2163 -2809 2810 0
2164 -2810 0
-2811 1 0
-2811 8 0
2811 -1 -8 0
-2812 10 0
-2812 17 0
2812 -10 -17 0
-2813 1 0
-2813 17 0
2813 -1 -17 0
-2814 10 0
-2814 8 0
2814 -10 -8 0
-2815 2 0
-2815 9 0
2815 -2 -9 0
-2816 11 0
-2816 18 0
2816 -11 -18 0
-2817 2 0
-2817 18 0
2817 -2 -18 0
-2818 11 0
-2818 9 0
2818 -11 -9 0
-2819 3 0
-2819 7 0
2819 -3 -7 0
-2820 12 0
-2820 16 0
2820 -12 -16 0
-2821 3 0
-2821 16 0
2821 -3 -16 0
-2822 12 0
-2822 7 0
2822 -12 -7 0
-2823 4 0
-2823 2 0
2823 -4 -2 0
-2824 13 0
-2824 11 0
2824 -13 -11 0
-2825 4 0
-2825 11 0
2825 -4 -11 0
-2826 13 0
-2826 2 0
2826 -13 -2 0
-2827 5 0
-2827 3 0
2827 -5 -3 0
-2828 14 0
-2828 12 0
2828 -14 -12 0
-2829 5 0
-2829 12 0
2829 -5 -12 0
-2830 14 0
-2830 3 0
2830 -14 -3 0
-2831 6 0
-2831 1 0
2831 -6 -1 0
-2832 15 0
-2832 10 0
2832 -15 -10 0
-2833 6 0
-2833 10 0
2833 -6 -10 0
-2834 15 0
-2834 1 0
2834 -15 -1 0
-2835 7 0
-2835 5 0
2835 -7 -5 0
-2836 16 0
-2836 14 0
2836 -16 -14 0
-2837 7 0
-2837 14 0
2837 -7 -14 0
-2838 16 0
-2838 5 0
2838 -16 -5 0
-2839 8 0
-2839 6 0
2839 -8 -6 0
-2840 17 0
-2840 15 0
2840 -17 -15 0
-2841 8 0
-2841 15 0
2841 -8 -15 0
-2842 17 0
-2842 6 0
2842 -17 -6 0
-2843 9 0
-2843 4 0
2843 -9 -4 0
-2844 18 0
-2844 13 0
2844 -18 -13 0
-2845 9 0
-2845 13 0
2845 -9 -13 0
-2846 18 0
-2846 4 0
2846 -18 -4 0
2811 2847 0
-2847 2848 0
2812 -2847 2849 0
-2849 2850 0
2815 -2849 2851 0
-2851 2852 0
2816 -2851 2853 0
-2853 2854 0
2819 -2853 2855 0
-2855 2856 0
2820 -2855 2857 0
-2857 2858 0
2823 -2857 2859 0
-2859 2860 0
2824 -2859 2861 0
-2861 2862 0
2827 -2861 2863 0
-2863 2864 0
2828 -2863 2865 0
-2865 2866 0
2831 -2865 2867 0
-2867 2868 0
2832 -2867 2869 0
-2869 2870 0
2835 -2869 2871 0
-2871 2872 0
2836 -2871 2873 0
-2873 2874 0
2839 -2873 2875 0
-2875 2876 0
2840 -2875 2877 0
-2877 2878 0
2843 -2877 2879 0
-2879 2880 0
2844 -2879 0
2812 2848 0
-2848 2881 0
2815 -2848 2850 0
-2850 2882 0
2816 -2850 2852 0
-2852 2883 0
2819 -2852 2854 0
-2854 2884 0
2820 -2854 2856 0
-2856 2885 0
2823 -2856 2858 0
-2858 2886 0
2824 -2858 2860 0
-2860 2887 0
2827 -2860 2862 0
-2862 2888 0
2828 -2862 2864 0
-2864 2889 0
2831 -2864 2866 0
-2866 2890 0
2832 -2866 2868 0
-2868 2891 0
2835 -2868 2870 0
-2870 2892 0
2836 -2870 2872 0
-2872 2893 0
2839 -2872 2874 0
-2874 2894 0
2840 -2874 2876 0
-2876 2895 0
2843 -2876 2878 0
-2878 2896 0
2844 -2878 2880 0
-2880 2897 0
-2813 -2880 0
2815 2881 0
-2881 2898 0
2816 -2881 2882 0
-2882 2899 0
2819 -2882 2883 0
-2883 2900 0
2820 -2883 2884 0
-2884 2901 0
2823 -2884 2885 0
-2885 2902 0
2824 -2885 2886 0
-2886 2903 0
2827 -2886 2887 0
-2887 2904 0
2828 -2887 2888 0
-2888 2905 0
2831 -2888 2889 0
-2889 2906 0
2832 -2889 2890 0
-2890 2907 0
2835 -2890 2891 0
-2891 2908 0
2836 -2891 2892 0
-2892 2909 0
2839 -2892 2893 0
-2893 2910 0
2840 -2893 2894 0
-2894 2911 0
2843 -2894 2895 0
-2895 2912 0
2844 -2895 2896 0
-2896 2913 0
-2813 -2896 2897 0
-2897 2914 0
-2814 -2897 0
2816 2898 0
-2898 2915 0
2819 -2898 2899 0
-2899 2916 0
2820 -2899 2900 0
-2900 2917 0
2823 -2900 2901 0
-2901 2918 0
2824 -2901 2902 0
-2902 2919 0
2827 -2902 2903 0
-2903 2920 0
2828 -2903 2904 0
-2904 2921 0
2831 -2904 2905 0
-2905 2922 0
2832 -2905 2906 0
-2906 2923 0
2835 -2906 2907 0
-2907 2924 0
2836 -2907 2908 0
-2908 2925 0
2839 -2908 2909 0
-2909 2926 0
2840 -2909 2910 0
-2910 2927 0
2843 -2910 2911 0
-2911 2928 0
2844 -2911 2912 0
-2912 2929 0
-2813 -2912 2913 0
-2913 2930 0
-2814 -2913 2914 0
-2914 2931 0
-2817 -2914 0
2819 2915 0
-2915 2932 0
2820 -2915 2916 0
-2916 2933 0
2823 -2916 2917 0
-2917 2934 0
2824 -2917 2918 0
-2918 2935 0
2827 -2918 2919 0
-2919 2936 0
2828 -2919 2920 0
-2920 2937 0
2831 -2920 2921 0
-2921 2938 0
2832 -2921 2922 0
-2922 2939 0
2835 -2922 2923 0
-2923 2940 0
2836 -2923 2924 0
-2924 2941 0
2839 -2924 2925 0
-2925 2942 0
2840 -2925 2926 0
-2926 2943 0
2843 -2926 2927 0
-2927 2944 0
2844 -2927 2928 0
-2928 2945 0
-2813 -2928 2929 0
-2929 2946 0
-2814 -2929 2930 0
-2930 2947 0
-2817 -2930 2931 0
-2931 2948 0
-2818 -2931 0
2820 2932 0
-2932 2949 0
2823 -2932 2933 0
-2933 2950 0
2824 -2933 2934 0
-2934 2951 0
2827 -2934 2935 0
-2935 2952 0
2828 -2935 2936 0
-2936 2953 0
2831 -2936 2937 0
-2937 2954 0
2832 -2937 2938 0
-2938 2955 0
2835 -2938 2939 0
-2939 2956 0
2836 -2939 2940 0
-2940 2957 0
2839 -2940 2941 0
-2941 2958 0
2840 -2941 2942 0
-2942 2959 0
2843 -2942 2943 0
-2943 2960 0
2844 -2943 2944 0
-2944 2961 0
-2813 -2944 2945 0
-2945 2962 0
-2814 -2945 2946 0
-2946 2963 0
-2817 -2946 2947 0
-2947 2964 0
-2818 -2947 2948 0
-2948 2965 0
-2821 -2948 0
2823 2949 0
-2949 2966 0
2824 -2949 2950 0
-2950 2967 0
2827 -2950 2951 0
-2951 2968 0
2828 -2951 2952 0
-2952 2969 0
2831 -2952 2953 0
-2953 2970 0
2832 -2953 2954 0
-2954 2971 0
2835 -2954 2955 0
-2955 2972 0
2836 -2955 2956 0
-2956 2973 0
2839 -2956 2957 0
-2957 2974 0
2840 -2957 2958 0
-2958 2975 0
2843 -2958 2959 0
-2959 2976 0
2844 -2959 2960 0
-2960 2977 0
-2813 -2960 2961 0
-2961 2978 0
-2814 -2961 2962 0
-2962 2979 0
-2817 -2962 2963 0
-2963 2980 0
-2818 -2963 2964 0
-2964 2981 0
-2821 -2964 2965 0
-2965 2982 0
-2822 -2965 0
2824 2966 0
-2966 2983 0
2827 -2966 2967 0
-2967 2984 0
2828 -2967 2968 0
-2968 2985 0
2831 -2968 2969 0
-2969 2986 0
2832 -2969 2970 0
-2970 2987 0
2835 -2970 2971 0
-2971 2988 0
2836 -2971 2972 0
-2972 2989 0
2839 -2972 2973 0
-2973 2990 0
2840 -2973 2974 0
-2974 2991 0
2843 -2974 2975 0
-2975 2992 0
2844 -2975 2976 0
-2976 2993 0
-2813 -2976 2977 0
-2977 2994 0
-2814 -2977 2978 0
-2978 2995 0
-2817 -2978 2979 0
-2979 2996 0
-2818 -2979 2980 0
-2980 2997 0
-2821 -2980 2981 0
-2981 2998 0
-2822 -2981 2982 0
-2982 2999 0
-2825 -2982 0
2827 2983 0
-2983 3000 0
2828 -2983 2984 0
-2984 3001 0
2831 -2984 2985 0
-2985 3002 0
2832 -2985 2986 0
-2986 3003 0
2835 -2986 2987 0
-2987 3004 0
2836 -2987 2988 0
-2988 3005 0
2839 -2988 2989 0
-2989 3006 0
2840 -2989 2990 0
-2990 3007 0
2843 -2990 2991 0
-2991 3008 0
2844 -2991 2992 0
-2992 3009 0
-2813 -2992 2993 0
-2993 3010 0
-2814 -2993 2994 0
-2994 3011 0
-2817 -2994 2995 0
-2995 3012 0
-2818 -2995 2996 0
-2996 3013 0
-2821 -2996 2997 0
-2997 3014 0
-2822 -2997 2998 0
-2998 3015 0
-2825 -2998 2999 0
-2999 3016 0
-2826 -2999 0
2828 3000 0
-3000 3017 0
2831 -3000 3001 0
-3001 3018 0
2832 -3001 3002 0
-3002 3019 0
2835 -3002 3003 0
-3003 3020 0
2836 -3003 3004 0
-3004 3021 0
2839 -3004 3005 0
-3005 3022 0
2840 -3005 3006 0
-3006 3023 0
2843 -3006 3007 0
-3007 3024 0
2844 -3007 3008 0
-3008 3025 0
-2813 -3008 3009 0
-3009 3026 0
-2814 -3009 3010 0
-3010 3027 0
-2817 -3010 3011 0
-3011 3028 0
-2818 -3011 3012 0
-3012 3029 0
-2821 -3012 3013 0
-3013 3030 0
-2822 -3013 3014 0
-3014 3031 0
-2825 -3014 3015 0
-3015 3032 0
-2826 -3015 3016 0
-3016 3033 0
-2829 -3016 0
2831 3017 0
-3017 3034 0
2832 -3017 3018 0
-3018 3035 0
2835 -3018 3019 0
-3019 3036 0
2836 -3019 3020 0
-3020 3037 0
2839 -3020 3021 0
-3021 3038 0
2840 -3021 3022 0
-3022 3039 0
2843 -3022 3023 0
-3023 3040 0
2844 -3023 3024 0
-3024 3041 0
-2813 -3024 3025 0
-3025 3042 0
-2814 -3025 3026 0
-3026 3043 0
-2817 -3026 3027 0
-3027 3044 0
-2818 -3027 3028 0
-3028 3045 0
-2821 -3028 3029 0
-3029 3046 0
-2822 -3029 3030 0
-3030 3047 0
-2825 -3030 3031 0
-3031 3048 0
-2826 -3031 3032 0
-3032 3049 0
-2829 -3032 3033 0
-3033 3050 0
-2830 -3033 0
2832 3034 0
-3034 3051 0
2835 -3034 3035 0
-3035 3052 0
2836 -3035 3036 0
-3036 3053 0
2839 -3036 3037 0
-3037 3054 0
2840 -3037 3038 0
-3038 3055 0
2843 -3038 3039 0
-3039 3056 0
2844 -3039 3040 0
-3040 3057 0
-2813 -3040 3041 0
-3041 3058 0
-2814 -3041 3042 0
-3042 3059 0
-2817 -3042 3043 0
-3043 3060 0
-2818 -3043 3044 0
-3044 3061 0
-2821 -3044 3045 0
-3045 3062 0
-2822 -3045 3046 0
-3046 3063 0
-2825 -3046 3047 0
-3047 3064 0
-2826 -3047 3048 0
-3048 3065 0
-2829 -3048 3049 0
-3049 3066 0
-2830 -3049 3050 0
-3050 3067 0
-2833 -3050 0
2835 3051 0
-3051 3068 0
2836 -3051 3052 0
-3052 3069 0
2839 -3052 3053 0
-3053 3070 0
2840 -3053 3054 0
-3054 3071 0
2843 -3054 3055 0
-3055 3072 0
2844 -3055 3056 0
-3056 3073 0
-2813 -3056 3057 0
-3057 3074 0
-2814 -3057 3058 0
-3058 3075 0
-2817 -3058 3059 0
-3059 3076 0
-2818 -3059 3060 0
-3060 3077 0
-2821 -3060 3061 0
-3061 3078 0
-2822 -3061 3062 0
-3062 3079 0
-2825 -3062 3063 0
-3063 3080 0
-2826 -3063 3064 0
-3064 3081 0
-2829 -3064 3065 0
-3065 3082 0
-2830 -3065 3066 0
-3066 3083 0
-2833 -3066 3067 0
-3067 3084 0
-2834 -3067 0
2836 3068 0
-3068 3085 0
2839 -3068 3069 0
-3069 3086 0
2840 -3069 3070 0
-3070 3087 0
2843 -3070 3071 0
-3071 3088 0
2844 -3071 3072 0
-3072 3089 0
-2813 -3072 3073 0
-3073 3090 0
-2814 -3073 3074 0
-3074 3091 0
-2817 -3074 3075 0
-3075 3092 0
-2818 -3075 3076 0
-3076 3093 0
-2821 -3076 3077 0
-3077 3094 0
-2822 -3077 3078 0
-3078 3095 0
-2825 -3078 3079 0
-3079 3096 0
-2826 -3079 3080 0
-3080 3097 0
-2829 -3080 3081 0
-3081 3098 0
-2830 -3081 3082 0
-3082 3099 0
-2833 -3082 3083 0
-3083 3100 0
-2834 -3083 3084 0
-3084 3101 0
-2837 -3084 0
2839 3085 0
-3085 3102 0
2840 -3085 3086 0
-3086 3103 0
2843 -3086 3087 0
-3087 3104 0
2844 -3087 3088 0
-3088 3105 0
-2813 -3088 3089 0
-3089 3106 0
-2814 -3089 3090 0
-3090 3107 0
-2817 -3090 3091 0
-3091 3108 0
-2818 -3091 3092 0
-3092 3109 0
-2821 -3092 3093 0
-3093 3110 0
-2822 -3093 3094 0
-3094 3111 0
-2825 -3094 3095 0
-3095 3112 0
-2826 -3095 3096 0
-3096 3113 0
-2829 -3096 3097 0
-3097 3114 0
-2830 -3097 3098 0
-3098 3115 0
-2833 -3098 3099 0
-3099 3116 0
-2834 -3099 3100 0
-3100 3117 0
-2837 -3100 3101 0
-3101 3118 0
-2838 -3101 0
2840 3102 0
-3102 3119 0
2843 -3102 3103 0
-3103 3120 0
2844 -3103 3104 0
-3104 3121 0
-2813 -3104 3105 0
-3105 3122 0
-2814 -3105 3106 0
-3106 3123 0
-2817 -3106 3107 0
-3107 3124 0
-2818 -3107 3108 0
-3108 3125 0
-2821 -3108 3109 0
-3109 3126 0
-2822 -3109 3110 0
-3110 3127 0
-2825 -3110 3111 0
-3111 3128 0
-2826 -3111 3112 0
-3112 3129 0
-2829 -3112 3113 0
-3113 3130 0
-2830 -3113 3114 0
-3114 3131 0
-2833 -3114 3115 0
-3115 3132 0
-2834 -3115 3116 0
-3116 3133 0
-2837 -3116 3117 0
-3117 3134 0
-2838 -3117 3118 0
-3118 3135 0
-2841 -3118 0
2843 3119 0
-3119 3136 0
2844 -3119 3120 0
-3120 3137 0
-2813 -3120 3121 0
-3121 3138 0
-2814 -3121 3122 0
-3122 3139 0
-2817 -3122 3123 0
-3123 3140 0
-2818 -3123 3124 0
-3124 3141 0
-2821 -3124 3125 0
-3125 3142 0
-2822 -3125 3126 0
-3126 3143 0
-2825 -3126 3127 0
-3127 3144 0
-2826 -3127 3128 0
-3128 3145 0
-2829 -3128 3129 0
-3129 3146 0
-2830 -3129 3130 0
-3130 3147 0
-2833 -3130 3131 0
-3131 3148 0
-2834 -3131 3132 0
-3132 3149 0
-2837 -3132 3133 0
-3133 3150 0
-2838 -3133 3134 0
-3134 3151 0
-2841 -3134 3135 0
-3135 3152 0
-2842 -3135 0
2844 3136 0
-3136 3153 0
-2813 -3136 3137 0
-3137 3154 0
-2814 -3137 3138 0
-3138 3155 0
-2817 -3138 3139 0
-3139 3156 0
-2818 -3139 3140 0
-3140 3157 0
-2821 -3140 3141 0
-3141 3158 0
-2822 -3141 3142 0
-3142 3159 0
-2825 -3142 3143 0
-3143 3160 0
-2826 -3143 3144 0
-3144 3161 0
-2829 -3144 3145 0
-3145 3162 0
-2830 -3145 3146 0
-3146 3163 0
-2833 -3146 3147 0
-3147 3164 0
-2834 -3147 3148 0
-3148 3165 0
-2837 -3148 3149 0
-3149 3166 0
-2838 -3149 3150 0
-3150 3167 0
-2841 -3150 3151 0
-3151 3168 0
-2842 -3151 3152 0
-3152 3169 0
-2845 -3152 0
-2813 3153 0
-2814 -3153 3154 0
-2817 -3154 3155 0
-2818 -3155 3156 0
-2821 -3156 3157 0
-2822 -3157 3158 0
-2825 -3158 3159 0
-2826 -3159 3160 0
-2829 -3160 3161 0
-2830 -3161 3162 0
-2833 -3162 3163 0
-2834 -3163 3164 0
-2837 -3164 3165 0
-2838 -3165 3166 0
-2841 -3166 3167 0
-2842 -3167 3168 0
-2845 -3168 3169 0
-2846 -3169 0
-2811 3170 0
-3170 3171 0
-2812 -3170 3172 0
-3172 3173 0
-2815 -3172 3174 0
-3174 3175 0
-2816 -3174 3176 0
-3176 3177 0
-2819 -3176 3178 0
-3178 3179 0
-2820 -3178 3180 0
-3180 3181 0
-2823 -3180 3182 0
-3182 3183 0
-2824 -3182 3184 0
-3184 3185 0
-2827 -3184 3186 0
-3186 3187 0
-2828 -3186 3188 0
-3188 3189 0
-2831 -3188 3190 0
-3190 3191 0
-2832 -3190 3192 0
-3192 3193 0
-2835 -3192 3194 0
-3194 3195 0
-2836 -3194 3196 0
-3196 3197 0
-2839 -3196 3198 0
-3198 3199 0
-2840 -3198 3200 0
-3200 3201 0
-2843 -3200 3202 0
-3202 3203 0
-2844 -3202 3204 0
-3204 3205 0
2813 -3204 3206 0
-3206 3207 0
2814 -3206 0
-2812 3171 0
-3171 3208 0
-2815 -3171 3173 0
-3173 3209 0
-2816 -3173 3175 0
-3175 3210 0
-2819 -3175 3177 0
-3177 3211 0
-2820 -3177 3179 0
-3179 3212 0
-2823 -3179 3181 0
-3181 3213 0
-2824 -3181 3183 0
-3183 3214 0
-2827 -3183 3185 0
-3185 3215 0
-2828 -3185 3187 0
-3187 3216 0
-2831 -3187 3189 0
-3189 3217 0
-2832 -3189 3191 0
-3191 3218 0
-2835 -3191 3193 0
-3193 3219 0
-2836 -3193 3195 0
-3195 3220 0
-2839 -3195 3197 0
-3197 3221 0
-2840 -3197 3199 0
-3199 3222 0
-2843 -3199 3201 0
-3201 3223 0
-2844 -3201 3203 0
-3203 3224 0
2813 -3203 3205 0
-3205 3225 0
2814 -3205 3207 0
-3207 3226 0
2817 -3207 0
-2815 3208 0
-3208 3227 0
-2816 -3208 3209 0
-3209 3228 0
-2819 -3209 3210 0
-3210 3229 0
-2820 -3210 3211 0
-3211 3230 0
-2823 -3211 3212 0
-3212 3231 0
-2824 -3212 3213 0
-3213 3232 0
-2827 -3213 3214 0
-3214 3233 0
-2828 -3214 3215 0
-3215 3234 0
-2831 -3215 3216 0
-3216 3235 0
-2832 -3216 3217 0
-3217 3236 0
-2835 -3217 3218 0
-3218 3237 0
-2836 -3218 3219 0
-3219 3238 0
-2839 -3219 3220 0
-3220 3239 0
-2840 -3220 3221 0
-3221 3240 0
-2843 -3221 3222 0
-3222 3241 0
-2844 -3222 3223 0
-3223 3242 0
2813 -3223 3224 0
-3224 3243 0
2814 -3224 3225 0
-3225 3244 0
2817 -3225 3226 0
-3226 3245 0
2818 -3226 0
-2816 3227 0
-3227 3246 0
-2819 -3227 3228 0
-3228 3247 0
-2820 -3228 3229 0
-3229 3248 0
-2823 -3229 3230 0
-3230 3249 0
-2824 -3230 3231 0
-3231 3250 0
-2827 -3231 3232 0
-3232 3251 0
-2828 -3232 3233 0
-3233 3252 0
-2831 -3233 3234 0
-3234 3253 0
-2832 -3234 3235 0
-3235 3254 0
-2835 -3235 3236 0
-3236 3255 0
-2836 -3236 3237 0
-3237 3256 0
-2839 -3237 3238 0
-3238 3257 0
-2840 -3238 3239 0
-3239 3258 0
-2843 -3239 3240 0
-3240 3259 0
-2844 -3240 3241 0
-3241 3260 0
2813 -3241 3242 0
-3242 3261 0
2814 -3242 3243 0
-3243 3262 0
2817 -3243 3244 0
-3244 3263 0
2818 -3244 3245 0
-3245 3264 0
2821 -3245 0
-2819 3246 0
-3246 3265 0
-2820 -3246 3247 0
-3247 3266 0
-2823 -3247 3248 0
-3248 3267 0
-2824 -3248 3249 0
-3249 3268 0
-2827 -3249 3250 0
-3250 3269 0
-2828 -3250 3251 0
-3251 3270 0
-2831 -3251 3252 0
-3252 3271 0
-2832 -3252 3253 0
-3253 3272 0
-2835 -3253 3254 0
-3254 3273 0
-2836 -3254 3255 0
-3255 3274 0
-2839 -3255 3256 0
-3256 3275 0
-2840 -3256 3257 0
-3257 3276 0
-2843 -3257 3258 0
-3258 3277 0
-2844 -3258 3259 0
-3259 3278 0
2813 -3259 3260 0
-3260 3279 0
2814 -3260 3261 0
-3261 3280 0
2817 -3261 3262 0
-3262 3281 0
2818 -3262 3263 0
-3263 3282 0
2821 -3263 3264 0
-3264 3283 0
2822 -3264 0
-2820 3265 0
-3265 3284 0
-2823 -3265 3266 0
-3266 3285 0
-2824 -3266 3267 0
-3267 3286 0
-2827 -3267 3268 0
-3268 3287 0
-2828 -3268 3269 0
-3269 3288 0
-2831 -3269 3270 0
-3270 3289 0
-2832 -3270 3271 0
-3271 3290 0
-2835 -3271 3272 0
-3272 3291 0
-2836 -3272 3273 0
-3273 3292 0
-2839 -3273 3274 0
-3274 3293 0
-2840 -3274 3275 0
-3275 3294 0
-2843 -3275 3276 0
-3276 3295 0
-2844 -3276 3277 0
-3277 3296 0
2813 -3277 3278 0
-3278 3297 0
2814 -3278 3279 0
-3279 3298 0
2817 -3279 3280 0
-3280 3299 0
2818 -3280 3281 0
-3281 3300 0
2821 -3281 3282 0
-3282 3301 0
2822 -3282 3283 0
-3283 3302 0
2825 -3283 0
-2823 3284 0
-3284 3303 0
-2824 -3284 3285 0
-3285 3304 0
-2827 -3285 3286 0
-3286 3305 0
-2828 -3286 3287 0
-3287 3306 0
-2831 -3287 3288 0
-3288 3307 0
-2832 -3288 3289 0
-3289 3308 0
-2835 -3289 3290 0
-3290 3309 0
-2836 -3290 3291 0
-3291 3310 0
-2839 -3291 3292 0
-3292 3311 0
-2840 -3292 3293 0
-3293 3312 0
-2843 -3293 3294 0
-3294 3313 0
-2844 -3294 3295 0
-3295 3314 0
2813 -3295 3296 0
-3296 3315 0
2814 -3296 3297 0
-3297 3316 0
2817 -3297 3298 0
-3298 3317 0
2818 -3298 3299 0
-3299 3318 0
2821 -3299 3300 0
-3300 3319 0
2822 -3300 3301 0
-3301 3320 0
2825 -3301 3302 0
-3302 3321 0
2826 -3302 0
-2824 3303 0
-3303 3322 0
-2827 -3303 3304 0
-3304 3323 0
-2828 -3304 3305 0
-3305 3324 0
-2831 -3305 3306 0
-3306 3325 0
-2832 -3306 3307 0
-3307 3326 0
-2835 -3307 3308 0
-3308 3327 0
-2836 -3308 3309 0
-3309 3328 0
-2839 -3309 3310 0
-3310 3329 0
-2840 -3310 3311 0
-3311 3330 0
-2843 -3311 3312 0
-3312 3331 0
-2844 -3312 3313 0
-3313 3332 0
2813 -3313 3314 0
-3314 3333 0
2814 -3314 3315 0
-3315 3334 0
2817 -3315 3316 0
-3316 3335 0
2818 -3316 3317 0
-3317 3336 0
2821 -3317 3318 0
-3318 3337 0
2822 -3318 3319 0
-3319 3338 0
2825 -3319 3320 0
-3320 3339 0
2826 -3320 3321 0
-3321 3340 0
2829 -3321 0
-2827 3322 0
-3322 3341 0
-2828 -3322 3323 0
-3323 3342 0
-2831 -3323 3324 0
-3324 3343 0
-2832 -3324 3325 0
-3325 3344 0
-2835 -3325 3326 0
-3326 3345 0
-2836 -3326 3327 0
-3327 3346 0
-2839 -3327 3328 0
-3328 3347 0
-2840 -3328 3329 0
-3329 3348 0
-2843 -3329 3330 0
-3330 3349 0
-2844 -3330 3331 0
-3331 3350 0
2813 -3331 3332 0
-3332 3351 0
2814 -3332 3333 0
-3333 3352 0
2817 -3333 3334 0
-3334 3353 0
2818 -3334 3335 0
-3335 3354 0
2821 -3335 3336 0
-3336 3355 0
2822 -3336 3337 0
-3337 3356 0
2825 -3337 3338 0
-3338 3357 0
2826 -3338 3339 0
-3339 3358 0
2829 -3339 3340 0
-3340 3359 0
2830 -3340 0
-2828 3341 0
-3341 3360 0
-2831 -3341 3342 0
-3342 3361 0
-2832 -3342 3343 0
-3343 3362 0
-2835 -3343 3344 0
-3344 3363 0
-2836 -3344 3345 0
-3345 3364 0
-2839 -3345 3346 0
-3346 3365 0
-2840 -3346 3347 0
-3347 3366 0
-2843 -3347 3348 0
-3348 3367 0
-2844 -3348 3349 0
-3349 3368 0
2813 -3349 3350 0
-3350 3369 0
2814 -3350 3351 0
-3351 3370 0
2817 -3351 3352 0
-3352 3371 0
2818 -3352 3353 0
-3353 3372 0
2821 -3353 3354 0
-3354 3373 0
2822 -3354 3355 0
-3355 3374 0
2825 -3355 3356 0
-3356 3375 0
2826 -3356 3357 0
-3357 3376 0
2829 -3357 3358 0
-3358 3377 0
2830 -3358 3359 0
-3359 3378 0
2833 -3359 0
-2831 3360 0
-3360 3379 0
-2832 -3360 3361 0
-3361 3380 0
-2835 -3361 3362 0
-3362 3381 0
-2836 -3362 3363 0
-3363 3382 0
-2839 -3363 3364 0
-3364 3383 0
-2840 -3364 3365 0
-3365 3384 0
-2843 -3365 3366 0
-3366 3385 0
-2844 -3366 3367 0
-3367 3386 0
2813 -3367 3368 0
-3368 3387 0
2814 -3368 3369 0
-3369 3388 0
2817 -3369 3370 0
-3370 3389 0
2818 -3370 3371 0
-3371 3390 0
2821 -3371 3372 0
-3372 3391 0
2822 -3372 3373 0
-3373 3392 0
2825 -3373 3374 0
-3374 3393 0
2826 -3374 3375 0
-3375 3394 0
2829 -3375 3376 0
-3376 3395 0
2830 -3376 3377 0
-3377 3396 0
2833 -3377 3378 0
-3378 3397 0
2834 -3378 0
-2832 3379 0
-3379 3398 0
-2835 -3379 3380 0
-3380 3399 0
-2836 -3380 3381 0
-3381 3400 0
-2839 -3381 3382 0
-3382 3401 0
-2840 -3382 3383 0
-3383 3402 0
-2843 -3383 3384 0
-3384 3403 0
-2844 -3384 3385 0
-3385 3404 0
2813 -3385 3386 0
-3386 3405 0
2814 -3386 3387 0
-3387 3406 0
2817 -3387 3388 0
-3388 3407 0
2818 -3388 3389 0
-3389 3408 0
2821 -3389 3390 0
-3390 3409 0
2822 -3390 3391 0
-3391 3410 0
2825 -3391 3392 0
-3392 3411 0
2826 -3392 3393 0
-3393 3412 0
2829 -3393 3394 0
-3394 3413 0
2830 -3394 3395 0
-3395 3414 0
2833 -3395 3396 0
-3396 3415 0
2834 -3396 3397 0
-3397 3416 0
2837 -3397 0
-2835 3398 0
-3398 3417 0
-2836 -3398 3399 0
-3399 3418 0
-2839 -3399 3400 0
-3400 3419 0
-2840 -3400 3401 0
-3401 3420 0
-2843 -3401 3402 0
-3402 3421 0
-2844 -3402 3403 0
-3403 3422 0
2813 -3403 3404 0
-3404 3423 0
2814 -3404 3405 0
-3405 3424 0
2817 -3405 3406 0
-3406 3425 0
2818 -3406 3407 0
-3407 3426 0
2821 -3407 3408 0
-3408 3427 0
2822 -3408 3409 0
-3409 3428 0
2825 -3409 3410 0
-3410 3429 0
2826 -3410 3411 0
-3411 3430 0
2829 -3411 3412 0
-3412 3431 0
2830 -3412 3413 0
-3413 3432 0
2833 -3413 3414 0
-3414 3433 0
2834 -3414 3415 0
-3415 3434 0
2837 -3415 3416 0
-3416 3435 0
2838 -3416 0
-2836 3417 0
-3417 3436 0
-2839 -3417 3418 0
-3418 3437 0
-2840 -3418 3419 0
-3419 3438 0
-2843 -3419 3420 0
-3420 3439 0
-2844 -3420 3421 0
-3421 3440 0
2813 -3421 3422 0
-3422 3441 0
2814 -3422 3423 0
-3423 3442 0
2817 -3423 3424 0
-3424 3443 0
2818 -3424 3425 0
-3425 3444 0
2821 -3425 3426 0
-3426 3445 0
2822 -3426 3427 0
-3427 3446 0
2825 -3427 3428 0
-3428 3447 0
2826 -3428 3429 0
-3429 3448 0
2829 -3429 3430 0
-3430 3449 0
2830 -3430 3431 0
-3431 3450 0
2833 -3431 3432 0
-3432 3451 0
2834 -3432 3433 0
-3433 3452 0
2837 -3433 3434 0
-3434 3453 0
2838 -3434 3435 0
-3435 3454 0
2841 -3435 0
-2839 3436 0
-3436 3455 0
-2840 -3436 3437 0
-3437 3456 0
-2843 -3437 3438 0
-3438 3457 0
-2844 -3438 3439 0
-3439 3458 0
2813 -3439 3440 0
-3440 3459 0
2814 -3440 3441 0
-3441 3460 0
2817 -3441 3442 0
-3442 3461 0
2818 -3442 3443 0
-3443 3462 0
2821 -3443 3444 0
-3444 3463 0
2822 -3444 3445 0
-3445 3464 0
2825 -3445 3446 0
-3446 3465 0
2826 -3446 3447 0
-3447 3466 0
2829 -3447 3448 0
-3448 3467 0
2830 -3448 3449 0
-3449 3468 0
2833 -3449 3450 0
-3450 3469 0
2834 -3450 3451 0
-3451 3470 0
2837 -3451 3452 0
-3452 3471 0
2838 -3452 3453 0
-3453 3472 0
2841 -3453 3454 0
-3454 3473 0
2842 -3454 0
-2840 3455 0
-3455 3474 0
-2843 -3455 3456 0
-3456 3475 0
-2844 -3456 3457 0
-3457 3476 0
2813 -3457 3458 0
-3458 3477 0
2814 -3458 3459 0
-3459 3478 0
2817 -3459 3460 0
-3460 3479 0
2818 -3460 3461 0
-3461 3480 0
2821 -3461 3462 0
-3462 3481 0
2822 -3462 3463 0
-3463 3482 0
2825 -3463 3464 0
-3464 3483 0
2826 -3464 3465 0
-3465 3484 0
2829 -3465 3466 0
-3466 3485 0
2830 -3466 3467 0
-3467 3486 0
2833 -3467 3468 0
-3468 3487 0
2834 -3468 3469 0
-3469 3488 0
2837 -3469 3470 0
-3470 3489 0
2838 -3470 3471 0
-3471 3490 0
2841 -3471 3472 0
-3472 3491 0
2842 -3472 3473 0
-3473 3492 0
2845 -3473 0
-2843 3474 0
-2844 -3474 3475 0
2813 -3475 3476 0
2814 -3476 3477 0
2817 -3477 3478 0
2818 -3478 3479 0
2821 -3479 3480 0
2822 -3480 3481 0
2825 -3481 3482 0
2826 -3482 3483 0
2829 -3483 3484 0
2830 -3484 3485 0
2833 -3485 3486 0
2834 -3486 3487 0
2837 -3487 3488 0
2838 -3488 3489 0
2841 -3489 3490 0
2842 -3490 3491 0
2845 -3491 3492 0
2846 -3492 0
-3493 1 0
-3493 4 0
3493 -1 -4 0
-3494 10 0
-3494 13 0
3494 -10 -13 0
-3495 1 0
-3495 13 0
3495 -1 -13 0
-3496 10 0
-3496 4 0
3496 -10 -4 0
-3497 2 0
-3497 5 0
3497 -2 -5 0
-3498 11 0
-3498 14 0
3498 -11 -14 0
-3499 2 0
-3499 14 0
3499 -2 -14 0
-3500 11 0
-3500 5 0
3500 -11 -5 0
-3501 3 0
-3501 6 0
3501 -3 -6 0
-3502 12 0
-3502 15 0
3502 -12 -15 0
-3503 3 0
-3503 15 0
3503 -3 -15 0
-3504 12 0
-3504 6 0
3504 -12 -6 0
-3505 4 0
-3505 7 0
3505 -4 -7 0
-3506 13 0
-3506 16 0
3506 -13 -16 0
-3507 4 0
-3507 16 0
3507 -4 -16 0
-3508 13 0
-3508 7 0
3508 -13 -7 0
-3509 5 0
-3509 8 0
3509 -5 -8 0
-3510 14 0
-3510 17 0
3510 -14 -17 0
-3511 5 0
-3511 17 0
3511 -5 -17 0
-3512 14 0
-3512 8 0
3512 -14 -8 0
-3513 6 0
-3513 9 0
3513 -6 -9 0
-3514 15 0
-3514 18 0
3514 -15 -18 0
-3515 6 0
-3515 18 0
3515 -6 -18 0
-3516 15 0
-3516 9 0
3516 -15 -9 0
-3517 7 0
-3517 1 0
3517 -7 -1 0
-3518 16 0
-3518 10 0
3518 -16 -10 0
-3519 7 0
-3519 10 0
3519 -7 -10 0
-3520 16 0
-3520 1 0
3520 -16 -1 0
-3521 8 0
-3521 2 0
3521 -8 -2 0
-3522 17 0
-3522 11 0
3522 -17 -11 0
-3523 8 0
-3523 11 0
3523 -8 -11 0
-3524 17 0
-3524 2 0
3524 -17 -2 0
-3525 9 0
-3525 3 0
3525 -9 -3 0
-3526 18 0
-3526 12 0
3526 -18 -12 0
-3527 9 0
-3527 12 0
3527 -9 -12 0
-3528 18 0
-3528 3 0
3528 -18 -3 0
3493 3529 0
-3529 3530 0
3494 -3529 3531 0
-3531 3532 0
3497 -3531 3533 0
-3533 3534 0
3498 -3533 3535 0
-3535 3536 0
3501 -3535 3537 0
-3537 3538 0
3502 -3537 3539 0
-3539 3540 0
3505 -3539 3541 0
-3541 3542 0
3506 -3541 3543 0
-3543 3544 0
3509 -3543 3545 0
-3545 3546 0
3510 -3545 3547 0
-3547 3548 0
3513 -3547 3549 0
-3549 3550 0
3514 -3549 3551 0
-3551 3552 0
3517 -3551 3553 0
-3553 3554 0
3518 -3553 3555 0
-3555 3556 0
3521 -3555 3557 0
-3557 3558 0
3522 -3557 3559 0
-3559 3560 0
3525 -3559 3561 0
-3561 3562 0
3526 -3561 0
3494 3530 0
-3530 3563 0
3497 -3530 3532 0
-3532 3564 0
3498 -3532 3534 0
-3534 3565 0
3501 -3534 3536 0
-3536 3566 0
3502 -3536 3538 0
-3538 3567 0
3505 -3538 3540 0
-3540 3568 0
3506 -3540 3542 0
-3542 3569 0
3509 -3542 3544 0
-3544 3570 0
3510 -3544 3546 0
-3546 3571 0
3513 -3546 3548 0
-3548 3572 0
3514 -3548 3550 0
-3550 3573 0
3517 -3550 3552 0
-3552 3574 0
3518 -3552 3554 0
-3554 3575 0
3521 -3554 3556 0
-3556 3576 0
3522 -3556 3558 0
-3558 3577 0
3525 -3558 3560 0
-3560 3578 0
3526 -3560 3562 0
-3562 3579 0
-3495 -3562 0
3497 3563 0
-3563 3580 0
3498 -3563 3564 0
-3564 3581 0
3501 -3564 3565 0
-3565 3582 0
3502 -3565 3566 0
-3566 3583 0
3505 -3566 3567 0
-3567 3584 0
3506 -3567 3568 0
-3568 3585 0
3509 -3568 3569 0
-3569 3586 0
3510 -3569 3570 0
-3570 3587 0
3513 -3570 3571 0
-3571 3588 0
3514 -3571 3572 0
-3572 3589 0
3517 -3572 3573 0
-3573 3590 0
3518 -3573 3574 0
-3574 3591 0
3521 -3574 3575 0
-3575 3592 0
3522 -3575 3576 0
-3576 3593 0
3525 -3576 3577 0
-3577 3594 0
3526 -3577 3578 0
-3578 3595 0
-3495 -3578 3579 0
-3579 3596 0
-3496 -3579 0
3498 3580 0
-3580 3597 0
3501 -3580 3581 0
-3581 3598 0
3502 -3581 3582 0
-3582 3599 0
3505 -3582 3583 0
-3583 3600 0
3506 -3583 3584 0
-3584 3601 0
3509 -3584 3585 0
-3585 3602 0
3510 -3585 3586 0
-3586 3603 0
3513 -3586 3587 0
-3587 3604 0
3514 -3587 3588 0
-3588 3605 0
3517 -3588 3589 0
-3589 3606 0
3518 -3589 3590 0
-3590 3607 0
3521 -3590 3591 0
-3591 3608 0
3522 -3591 3592 0
-3592 3609 0
3525 -3592 3593 0
-3593 3610 0
3526 -3593 3594 0
-3594 3611 0
-3495 -3594 3595 0
-3595 3612 0
-3496 -3595 3596 0
-3596 3613 0
-3499 -3596 0
3501 3597 0
-3597 3614 0
3502 -3597 3598 0
-3598 3615 0
3505 -3598 3599 0
-3599 3616 0
3506 -3599 3600 0
-3600 3617 0
3509 -3600 3601 0
-3601 3618 0
3510 -3601 3602 0
-3602 3619 0
3513 -3602 3603 0
-3603 3620 0
3514 -3603 3604 0
-3604 3621 0
3517 -3604 3605 0
-3605 3622 0
3518 -3605 3606 0
-3606 3623 0
3521 -3606 3607 0
-3607 3624 0
3522 -3607 3608 0
-3608 3625 0
3525 -3608 3609 0
-3609 3626 0
3526 -3609 3610 0
-3610 3627 0
-3495 -3610 3611 0
-3611 3628 0
-3496 -3611 3612 0
-3612 3629 0
-3499 -3612 3613 0
-3613 3630 0
-3500 -3613 0
3502 3614 0
-3614 3631 0
3505 -3614 3615 0
-3615 3632 0
3506 -3615 3616 0
-3616 3633 0
3509 -3616 3617 0
-3617 3634 0
3510 -3617 3618 0
-3618 3635 0
3513 -3618 3619 0
-3619 3636 0
3514 -3619 3620 0
-3620 3637 0
3517 -3620 3621 0
-3621 3638 0
3518 -3621 3622 0
-3622 3639 0
3521 -3622 3623 0
-3623 3640 0
3522 -3623 3624 0
-3624 3641 0
3525 -3624 3625 0
-3625 3642 0
3526 -3625 3626 0
-3626 3643 0
-3495 -3626 3627 0
-3627 3644 0
-3496 -3627 3628 0
-3628 3645 0
-3499 -3628 3629 0
-3629 3646 0
-3500 -3629 3630 0
-3630 3647 0
-3503 -3630 0
3505 3631 0
-3631 3648 0
3506 -3631 3632 0
-3632 3649 0
3509 -3632 3633 0
-3633 3650 0
3510 -3633 3634 0
-3634 3651 0
3513 -3634 3635 0
-3635 3652 0
3514 -3635 3636 0
-3636 3653 0
3517 -3636 3637 0
-3637 3654 0
3518 -3637 3638 0
-3638 3655 0
3521 -3638 3639 0
-3639 3656 0
3522 -3639 3640 0
-3640 3657 0
3525 -3640 3641 0
-3641 3658 0
3526 -3641 3642 0
-3642 3659 0
-3495 -3642 3643 0
-3643 3660 0
-3496 -3643 3644 0
-3644 3661 0
-3499 -3644 3645 0
-3645 3662 0
-3500 -3645 3646 0
-3646 3663 0
-3503 -3646 3647 0
-3647 3664 0
-3504 -3647 0
3506 3648 0
-3648 3665 0
3509 -3648 3649 0
-3649 3666 0
3510 -3649 3650 0
-3650 3667 0
3513 -3650 3651 0
-3651 3668 0
3514 -3651 3652 0
-3652 3669 0
3517 -3652 3653 0
-3653 3670 0
3518 -3653 3654 0
-3654 3671 0
3521 -3654 3655 0
-3655 3672 0
3522 -3655 3656 0
-3656 3673 0
3525 -3656 3657 0
-3657 3674 0
3526 -3657 3658 0
-3658 3675 0
-3495 -3658 3659 0
-3659 3676 0
-3496 -3659 3660 0
-3660 3677 0
-3499 -3660 3661 0
-3661 3678 0
-3500 -3661 3662 0
-3662 3679 0
-3503 -3662 3663 0
-3663 3680 0
-3504 -3663 3664 0
-3664 3681 0
-3507 -3664 0
3509 3665 0
-3665 3682 0
3510 -3665 3666 0
-3666 3683 0
3513 -3666 3667 0
-3667 3684 0
3514 -3667 3668 0
-3668 3685 0
3517 -3668 3669 0
-3669 3686 0
3518 -3669 3670 0
-3670 3687 0
3521 -3670 3671 0
-3671 3688 0
3522 -3671 3672 0
-3672 3689 0
3525 -3672 3673 0
-3673 3690 0
3526 -3673 3674 0
-3674 3691 0
-3495 -3674 3675 0
-3675 3692 0
-3496 -3675 3676 0
-3676 3693 0
-3499 -3676 3677 0
-3677 3694 0
-3500 -3677 3678 0
-3678 3695 0
-3503 -3678 3679 0
-3679 3696 0
-3504 -3679 3680 0
-3680 3697 0
-3507 -3680 3681 0
-3681 3698 0
-3508 -3681 0
3510 3682 0
-3682 3699 0
3513 -3682 3683 0
-3683 3700 0
3514 -3683 3684 0
-3684 3701 0
3517 -3684 3685 0
-3685 3702 0
3518 -3685 3686 0
-3686 3703 0
3521 -3686 3687 0
-3687 3704 0
3522 -3687 3688 0
-3688 3705 0
3525 -3688 3689 0
-3689 3706 0
3526 -3689 3690 0
-3690 3707 0
-3495 -3690 3691 0
-3691 3708 0
-3496 -3691 3692 0
-3692 3709 0
-3499 -3692 3693 0
-3693 3710 0
-3500 -3693 3694 0
-3694 3711 0
-3503 -3694 3695 0
-3695 3712 0
-3504 -3695 3696 0
-3696 3713 0
-3507 -3696 3697 0
-3697 3714 0
-3508 -3697 3698 0
-3698 3715 0
-3511 -3698 0
3513 3699 0
-3699 3716 0
3514 -3699 3700 0
-3700 3717 0
3517 -3700 3701 0
-3701 3718 0
3518 -3701 3702 0
-3702 3719 0
3521 -3702 3703 0
-3703 3720 0
3522 -3703 3704 0
-3704 3721 0
3525 -3704 3705 0
-3705 3722 0
3526 -3705 3706 0
-3706 3723 0
-3495 -3706 3707 0
-3707 3724 0
-3496 -3707 3708 0
-3708 3725 0
-3499 -3708 3709 0
-3709 3726 0
-3500 -3709 3710 0
-3710 3727 0
-3503 -3710 3711 0
-3711 3728 0
-3504 -3711 3712 0
-3712 3729 0
-3507 -3712 3713 0
-3713 3730 0
-3508 -3713 3714 0
-3714 3731 0
-3511 -3714 3715 0
-3715 3732 0
-3512 -3715 0
3514 3716 0
-3716 3733 0
3517 -3716 3717 0
-3717 3734 0
3518 -3717 3718 0
-3718 3735 0
3521 -3718 3719 0
-3719 3736 0
3522 -3719 3720 0
-3720 3737 0
3525 -3720 3721 0
-3721 3738 0
3526 -3721 3722 0
-3722 3739 0
-3495 -3722 3723 0
-3723 3740 0
-3496 -3723 3724 0
-3724 3741 0
-3499 -3724 3725 0
-3725 3742 0
-3500 -3725 3726 0
-3726 3743 0
-3503 -3726 3727 0
-3727 3744 0
-3504 -3727 3728 0
-3728 3745 0
-3507 -3728 3729 0
-3729 3746 0
-3508 -3729 3730 0
-3730 3747 0
-3511 -3730 3731 0
-3731 3748 0
-3512 -3731 3732 0
-3732 3749 0
-3515 -3732 0
3517 3733 0
-3733 3750 0
3518 -3733 3734 0
-3734 3751 0
3521 -3734 3735 0
-3735 3752 0
3522 -3735 3736 0
-3736 3753 0
3525 -3736 3737 0
-3737 3754 0
3526 -3737 3738 0
-3738 3755 0
-3495 -3738 3739 0
-3739 3756 0
-3496 -3739 3740 0
-3740 3757 0
-3499 -3740 3741 0
-3741 3758 0
-3500 -3741 3742 0
-3742 3759 0
-3503 -3742 3743 0
-3743 3760 0
-3504 -3743 3744 0
-3744 3761 0
-3507 -3744 3745 0
-3745 3762 0
-3508 -3745 3746 0
-3746 3763 0
-3511 -3746 3747 0
-3747 3764 0
-3512 -3747 3748 0
-3748 3765 0
-3515 -3748 3749 0
-3749 3766 0
-3516 -3749 0
3518 3750 0
-3750 3767 0
3521 -3750 3751 0
-3751 3768 0
3522 -3751 3752 0
-3752 3769 0
3525 -3752 3753 0
-3753 3770 0
3526 -3753 3754 0
-3754 3771 0
-3495 -3754 3755 0
-3755 3772 0
-3496 -3755 3756 0
-3756 3773 0
-3499 -3756 3757 0
-3757 3774 0
-3500 -3757 3758 0
-3758 3775 0
-3503 -3758 3759 0
-3759 3776 0
-3504 -3759 3760 0
-3760 3777 0
-3507 -3760 3761 0
-3761 3778 0
-3508 -3761 3762 0
-3762 3779 0
-3511 -3762 3763 0
-3763 3780 0
-3512 -3763 3764 0
-3764 3781 0
-3515 -3764 3765 0
-3765 3782 0
-3516 -3765 3766 0
-3766 3783 0
-3519 -3766 0
3521 3767 0
-3767 3784 0
3522 -3767 3768 0
-3768 3785 0
3525 -3768 3769 0
-3769 3786 0
3526 -3769 3770 0
-3770 3787 0
-3495 -3770 3771 0
-3771 3788 0
-3496 -3771 3772 0
-3772 3789 0
-3499 -3772 3773 0
-3773 3790 0
-3500 -3773 3774 0
-3774 3791 0
-3503 -3774 3775 0
-3775 3792 0
-3504 -3775 3776 0
-3776 3793 0
-3507 -3776 3777 0
-3777 3794 0
-3508 -3777 3778 0
-3778 3795 0
-3511 -3778 3779 0
-3779 3796 0
-3512 -3779 3780 0
-3780 3797 0
-3515 -3780 3781 0
-3781 3798 0
-3516 -3781 3782 0
-3782 3799 0
-3519 -3782 3783 0
-3783 3800 0
-3520 -3783 0
3522 3784 0
-3784 3801 0
3525 -3784 3785 0
-3785 3802 0
3526 -3785 3786 0
-3786 3803 0
-3495 -3786 3787 0
-3787 3804 0
-3496 -3787 3788 0
-3788 3805 0
-3499 -3788 3789 0
-3789 3806 0
-3500 -3789 3790 0
-3790 3807 0
-3503 -3790 3791 0
-3791 3808 0
-3504 -3791 3792 0
-3792 3809 0
-3507 -3792 3793 0
-3793 3810 0
-3508 -3793 3794 0
-3794 3811 0
-3511 -3794 3795 0
-3795 3812 0
-3512 -3795 3796 0
-3796 3813 0
-3515 -3796 3797 0
-3797 3814 0
-3516 -3797 3798 0
-3798 3815 0
-3519 -3798 3799 0
-3799 3816 0
-3520 -3799 3800 0
-3800 3817 0
-3523 -3800 0
3525 3801 0
-3801 3818 0
3526 -3801 3802 0
-3802 3819 0
-3495 -3802 3803 0
-3803 3820 0
-3496 -3803 3804 0
-3804 3821 0
-3499 -3804 3805 0
-3805 3822 0
-3500 -3805 3806 0
-3806 3823 0
-3503 -3806 3807 0
-3807 3824 0
-3504 -3807 3808 0
-3808 3825 0
-3507 -3808 3809 0
-3809 3826 0
-3508 -3809 3810 0
-3810 3827 0
-3511 -3810 3811 0
-3811 3828 0
-3512 -3811 3812 0
-3812 3829 0
-3515 -3812 3813 0
-3813 3830 0
-3516 -3813 3814 0
-3814 3831 0
-3519 -3814 3815 0
-3815 3832 0
-3520 -3815 3816 0
-3816 3833 0
-3523 -3816 3817 0
-3817 3834 0
-3524 -3817 0
3526 3818 0
-3818 3835 0
-3495 -3818 3819 0
-3819 3836 0
-3496 -3819 3820 0
-3820 3837 0
-3499 -3820 3821 0
-3821 3838 0
-3500 -3821 3822 0
-3822 3839 0
-3503 -3822 3823 0
-3823 3840 0
-3504 -3823 3824 0
-3824 3841 0
-3507 -3824 3825 0
-3825 3842 0
-3508 -3825 3826 0
-3826 3843 0
-3511 -3826 3827 0
-3827 3844 0
-3512 -3827 3828 0
-3828 3845 0
-3515 -3828 3829 0
-3829 3846 0
-3516 -3829 3830 0
-3830 3847 0
-3519 -3830 3831 0
-3831 3848 0
-3520 -3831 3832 0
-3832 3849 0
-3523 -3832 3833 0
-3833 3850 0
-3524 -3833 3834 0
-3834 3851 0
-3527 -3834 0
-3495 3835 0
-3496 -3835 3836 0
-3499 -3836 3837 0
-3500 -3837 3838 0
-3503 -3838 3839 0
-3504 -3839 3840 0
-3507 -3840 3841 0
-3508 -3841 3842 0
-3511 -3842 3843 0
-3512 -3843 3844 0
-3515 -3844 3845 0
-3516 -3845 3846 0
-3519 -3846 3847 0
-3520 -3847 3848 0
-3523 -3848 3849 0
-3524 -3849 3850 0
-3527 -3850 3851 0
-3528 -3851 0
-3493 3852 0
-3852 3853 0
-3494 -3852 3854 0
-3854 3855 0
-3497 -3854 3856 0
-3856 3857 0
-3498 -3856 3858 0
-3858 3859 0
-3501 -3858 3860 0
-3860 3861 0
-3502 -3860 3862 0
-3862 3863 0
-3505 -3862 3864 0
-3864 3865 0
-3506 -3864 3866 0
-3866 3867 0
-3509 -3866 3868 0
-3868 3869 0
-3510 -3868 3870 0
-3870 3871 0
-3513 -3870 3872 0
-3872 3873 0
-3514 -3872 3874 0
-3874 3875 0
-3517 -3874 3876 0
-3876 3877 0
-3518 -3876 3878 0
-3878 3879 0
-3521 -3878 3880 0
-3880 3881 0
-3522 -3880 3882 0
-3882 3883 0
-3525 -3882 3884 0
-3884 3885 0
-3526 -3884 3886 0
-3886 3887 0
3495 -3886 3888 0
-3888 3889 0
3496 -3888 0
-3494 3853 0
-3853 3890 0
-3497 -3853 3855 0
-3855 3891 0
-3498 -3855 3857 0
-3857 3892 0
-3501 -3857 3859 0
-3859 3893 0
-3502 -3859 3861 0
-3861 3894 0
-3505 -3861 3863 0
-3863 3895 0
-3506 -3863 3865 0
-3865 3896 0
-3509 -3865 3867 0
-3867 3897 0
-3510 -3867 3869 0
-3869 3898 0
-3513 -3869 3871 0
-3871 3899 0
-3514 -3871 3873 0
-3873 3900 0
-3517 -3873 3875 0
-3875 3901 0
-3518 -3875 3877 0
-3877 3902 0
-3521 -3877 3879 0
-3879 3903 0
-3522 -3879 3881 0
-3881 3904 0
-3525 -3881 3883 0
-3883 3905 0
-3526 -3883 3885 0
-3885 3906 0
3495 -3885 3887 0
-3887 3907 0
3496 -3887 3889 0
-3889 3908 0
3499 -3889 0
-3497 3890 0
-3890 3909 0
-3498 -3890 3891 0
-3891 3910 0
-3501 -3891 3892 0
-3892 3911 0
-3502 -3892 3893 0
-3893 3912 0
-3505 -3893 3894 0
-3894 3913 0
-3506 -3894 3895 0
-3895 3914 0
-3509 -3895 3896 0
-3896 3915 0
-3510 -3896 3897 0
-3897 3916 0
-3513 -3897 3898 0
-3898 3917 0
-3514 -3898 3899 0
-3899 3918 0
-3517 -3899 3900 0
-3900 3919 0
-3518 -3900 3901 0
-3901 3920 0
-3521 -3901 3902 0
-3902 3921 0
-3522 -3902 3903 0
-3903 3922 0
-3525 -3903 3904 0
-3904 3923 0
-3526 -3904 3905 0
-3905 3924 0
3495 -3905 3906 0
-3906 3925 0
3496 -3906 3907 0
-3907 3926 0
3499 -3907 3908 0
-3908 3927 0
3500 -3908 0
-3498 3909 0
-3909 3928 0
-3501 -3909 3910 0
-3910 3929 0
-3502 -3910 3911 0
-3911 3930 0
-3505 -3911 3912 0
-3912 3931 0
-3506 -3912 3913 0
-3913 3932 0
-3509 -3913 3914 0
-3914 3933 0
-3510 -3914 3915 0
-3915 3934 0
-3513 -3915 3916 0
-3916 3935 0
-3514 -3916 3917 0
-3917 3936 0
-3517 -3917 3918 0
-3918 3937 0
-3518 -3918 3919 0
-3919 3938 0
-3521 -3919 3920 0
-3920 3939 0
-3522 -3920 3921 0
-3921 3940 0
-3525 -3921 3922 0
-3922 3941 0
-3526 -3922 3923 0
-3923 3942 0
3495 -3923 3924 0
-3924 3943 0
3496 -3924 3925 0
-3925 3944 0
3499 -3925 3926 0
-3926 3945 0
3500 -3926 3927 0
-3927 3946 0
3503 -3927 0
-3501 3928 0
-3928 3947 0
-3502 -3928 3929 0
-3929 3948 0
-3505 -3929 3930 0
-3930 3949 0
-3506 -3930 3931 0
-3931 3950 0
-3509 -3931 3932 0
-3932 3951 0
-3510 -3932 3933 0
-3933 3952 0
-3513 -3933 3934 0
-3934 3953 0
-3514 -3934 3935 0
-3935 3954 0
-3517 -3935 3936 0
-3936 3955 0
-3518 -3936 3937 0
-3937 3956 0
-3521 -3937 3938 0
-3938 3957 0
-3522 -3938 3939 0
-3939 3958 0
-3525 -3939 3940 0
-3940 3959 0
-3526 -3940 3941 0
-3941 3960 0
3495 -3941 3942 0
-3942 3961 0
3496 -3942 3943 0
-3943 3962 0
3499 -3943 3944 0
-3944 3963 0
3500 -3944 3945 0
-3945 3964 0
3503 -3945 3946 0
-3946 3965 0
3504 -3946 0
-3502 3947 0
-3947 3966 0
-3505 -3947 3948 0
-3948 3967 0
-3506 -3948 3949 0
-3949 3968 0
-3509 -3949 3950 0
-3950 3969 0
-3510 -3950 3951 0
-3951 3970 0
-3513 -3951 3952 0
-3952 3971 0
-3514 -3952 3953 0
-3953 3972 0
-3517 -3953 3954 0
-3954 3973 0
-3518 -3954 3955 0
-3955 3974 0
-3521 -3955 3956 0
-3956 3975 0
-3522 -3956 3957 0
-3957 3976 0
-3525 -3957 3958 0
-3958 3977 0
-3526 -3958 3959 0
-3959 3978 0
3495 -3959 3960 0
-3960 3979 0
3496 -3960 3961 0
-3961 3980 0
3499 -3961 3962 0
-3962 3981 0
3500 -3962 3963 0
-3963 3982 0
3503 -3963 3964 0
-3964 3983 0
3504 -3964 3965 0
-3965 3984 0
3507 -3965 0
-3505 3966 0
-3966 3985 0
-3506 -3966 3967 0
-3967 3986 0
-3509 -3967 3968 0
-3968 3987 0
-3510 -3968 3969 0
-3969 3988 0
-3513 -3969 3970 0
-3970 3989 0
-3514 -3970 3971 0
-3971 3990 0
-3517 -3971 3972 0
-3972 3991 0
-3518 -3972 3973 0
-3973 3992 0
-3521 -3973 3974 0
-3974 3993 0
-3522 -3974 3975 0
-3975 3994 0
-3525 -3975 3976 0
-3976 3995 0
-3526 -3976 3977 0
-3977 3996 0
3495 -3977 3978 0
-3978 3997 0
3496 -3978 3979 0
-3979 3998 0
3499 -3979 3980 0
-3980 3999 0
3500 -3980 3981 0
-3981 4000 0
3503 -3981 3982 0
-3982 4001 0
3504 -3982 3983 0
-3983 4002 0
3507 -3983 3984 0
-3984 4003 0
3508 -3984 0
-3506 3985 0
-3985 4004 0
-3509 -3985 3986 0
-3986 4005 0
-3510 -3986 3987 0
-3987 4006 0
-3513 -3987 3988 0
-3988 4007 0
-3514 -3988 3989 0
-3989 4008 0
-3517 -3989 3990 0
-3990 4009 0
-3518 -3990 3991 0
-3991 4010 0
-3521 -3991 3992 0
-3992 4011 0
-3522 -3992 3993 0
-3993 4012 0
-3525 -3993 3994 0
-3994 4013 0
-3526 -3994 3995 0
-3995 4014 0
3495 -3995 3996 0
-3996 4015 0
3496 -3996 3997 0
-3997 4016 0
3499 -3997 3998 0
-3998 4017 0
3500 -3998 3999 0
-3999 4018 0
3503 -3999 4000 0
-4000 4019 0
3504 -4000 4001 0
-4001 4020 0
3507 -4001 4002 0
-4002 4021 0
3508 -4002 4003 0
-4003 4022 0
3511 -4003 0
-3509 4004 0
-4004 4023 0
-3510 -4004 4005 0
-4005 4024 0
-3513 -4005 4006 0
-4006 4025 0
-3514 -4006 4007 0
-4007 4026 0
-3517 -4007 4008 0
-4008 4027 0
-3518 -4008 4009 0
-4009 4028 0
-3521 -4009 4010 0
-4010 4029 0
-3522 -4010 4011 0
-4011 4030 0
-3525 -4011 4012 0
-4012 4031 0
-3526 -4012 4013 0
-4013 4032 0
3495 -4013 4014 0
-4014 4033 0
3496 -4014 4015 0
-4015 4034 0
3499 -4015 4016 0
-4016 4035 0
3500 -4016 4017 0
-4017 4036 0
3503 -4017 4018 0
-4018 4037 0
3504 -4018 4019 0
-4019 4038 0
3507 -4019 4020 0
-4020 4039 0
3508 -4020 4021 0
-4021 4040 0
3511 -4021 4022 0
-4022 4041 0
3512 -4022 0
-3510 4023 0
-4023 4042 0
-3513 -4023 4024 0
-4024 4043 0
-3514 -4024 4025 0
-4025 4044 0
-3517 -4025 4026 0
-4026 4045 0
-3518 -4026 4027 0
-4027 4046 0
-3521 -4027 4028 0
-4028 4047 0
-3522 -4028 4029 0
-4029 4048 0
-3525 -4029 4030 0
-4030 4049 0
-3526 -4030 4031 0
-4031 4050 0
3495 -4031 4032 0
-4032 4051 0
3496 -4032 4033 0
-4033 4052 0
3499 -4033 4034 0
-4034 4053 0
3500 -4034 4035 0
-4035 4054 0
3503 -4035 4036 0
-4036 4055 0
3504 -4036 4037 0
-4037 4056 0
3507 -4037 4038 0
-4038 4057 0
3508 -4038 4039 0
-4039 4058 0
3511 -4039 4040 0
-4040 4059 0
3512 -4040 4041 0
-4041 4060 0
3515 -4041 0
-3513 4042 0
-4042 4061 0
-3514 -4042 4043 0
-4043 4062 0
-3517 -4043 4044 0
-4044 4063 0
-3518 -4044 4045 0
-4045 4064 0
-3521 -4045 4046 0
-4046 4065 0
-3522 -4046 4047 0
-4047 4066 0
-3525 -4047 4048 0
-4048 4067 0
-3526 -4048 4049 0
-4049 4068 0
3495 -4049 4050 0
-4050 4069 0
3496 -4050 4051 0
-4051 4070 0
3499 -4051 4052 0
-4052 4071 0
3500 -4052 4053 0
-4053 4072 0
3503 -4053 4054 0
-4054 4073 0
3504 -4054 4055 0
-4055 4074 0
3507 -4055 4056 0
-4056 4075 0
3508 -4056 4057 0
-4057 4076 0
3511 -4057 4058 0
-4058 4077 0
3512 -4058 4059 0
-4059 4078 0
3515 -4059 4060 0
-4060 4079 0
3516 -4060 0
-3514 4061 0
-4061 4080 0
-3517 -4061 4062 0
-4062 4081 0
-3518 -4062 4063 0
-4063 4082 0
-3521 -4063 4064 0
-4064 4083 0
-3522 -4064 4065 0
-4065 4084 0
-3525 -4065 4066 0
-4066 4085 0
-3526 -4066 4067 0
-4067 4086 0
3495 -4067 4068 0
-4068 4087 0
3496 -4068 4069 0
-4069 4088 0
3499 -4069 4070 0
-4070 4089 0
3500 -4070 4071 0
-4071 4090 0
3503 -4071 4072 0
-4072 4091 0
3504 -4072 4073 0
-4073 4092 0
3507 -4073 4074 0
-4074 4093 0
3508 -4074 4075 0
-4075 4094 0
3511 -4075 4076 0
-4076 4095 0
3512 -4076 4077 0
-4077 4096 0
3515 -4077 4078 0
-4078 4097 0
3516 -4078 4079 0
-4079 4098 0
3519 -4079 0
-3517 4080 0
-4080 4099 0
-3518 -4080 4081 0
-4081 4100 0
-3521 -4081 4082 0
-4082 4101 0
-3522 -4082 4083 0
-4083 4102 0
-3525 -4083 4084 0
-4084 4103 0
-3526 -4084 4085 0
-4085 4104 0
3495 -4085 4086 0
-4086 4105 0
3496 -4086 4087 0
-4087 4106 0
3499 -4087 4088 0
-4088 4107 0
3500 -4088 4089 0
-4089 4108 0
3503 -4089 4090 0
-4090 4109 0
3504 -4090 4091 0
-4091 4110 0
3507 -4091 4092 0
-4092 4111 0
3508 -4092 4093 0
-4093 4112 0
3511 -4093 4094 0
-4094 4113 0
3512 -4094 4095 0
-4095 4114 0
3515 -4095 4096 0
-4096 4115 0
3516 -4096 4097 0
-4097 4116 0
3519 -4097 4098 0
-4098 4117 0
3520 -4098 0
-3518 4099 0
-4099 4118 0
-3521 -4099 4100 0
-4100 4119 0
-3522 -4100 4101 0
-4101 4120 0
-3525 -4101 4102 0
-4102 4121 0
-3526 -4102 4103 0
-4103 4122 0
3495 -4103 4104 0
-4104 4123 0
3496 -4104 4105 0
-4105 4124 0
3499 -4105 4106 0
-4106 4125 0
3500 -4106 4107 0
-4107 4126 0
3503 -4107 4108 0
-4108 4127 0
3504 -4108 4109 0
-4109 4128 0
3507 -4109 4110 0
-4110 4129 0
3508 -4110 4111 0
-4111 4130 0
3511 -4111 4112 0
-4112 4131 0
3512 -4112 4113 0
-4113 4132 0
3515 -4113 4114 0
-4114 4133 0
3516 -4114 4115 0
-4115 4134 0
3519 -4115 4116 0
-4116 4135 0
3520 -4116 4117 0
-4117 4136 0
3523 -4117 0
-3521 4118 0
-4118 4137 0
-3522 -4118 4119 0
-4119 4138 0
-3525 -4119 4120 0
-4120 4139 0
-3526 -4120 4121 0
-4121 4140 0
3495 -4121 4122 0
-4122 4141 0
3496 -4122 4123 0
-4123 4142 0
3499 -4123 4124 0
-4124 4143 0
3500 -4124 4125 0
-4125 4144 0
3503 -4125 4126 0
-4126 4145 0
3504 -4126 4127 0
-4127 4146 0
3507 -4127 4128 0
-4128 4147 0
3508 -4128 4129 0
-4129 4148 0
3511 -4129 4130 0
-4130 4149 0
3512 -4130 4131 0
-4131 4150 0
3515 -4131 4132 0
-4132 4151 0
3516 -4132 4133 0
-4133 4152 0
3519 -4133 4134 0
-4134 4153 0
3520 -4134 4135 0
-4135 4154 0
3523 -4135 4136 0
-4136 4155 0
3524 -4136 0
-3522 4137 0
-4137 4156 0
-3525 -4137 4138 0
-4138 4157 0
-3526 -4138 4139 0
-4139 4158 0
3495 -4139 4140 0
-4140 4159 0
3496 -4140 4141 0
-4141 4160 0
3499 -4141 4142 0
-4142 4161 0
3500 -4142 4143 0
-4143 4162 0
3503 -4143 4144 0
-4144 4163 0
3504 -4144 4145 0
-4145 4164 0
3507 -4145 4146 0
-4146 4165 0
3508 -4146 4147 0
-4147 4166 0
3511 -4147 4148 0
-4148 4167 0
3512 -4148 4149 0
-4149 4168 0
3515 -4149 4150 0
-4150 4169 0
3516 -4150 4151 0
-4151 4170 0
3519 -4151 4152 0
-4152 4171 0
3520 -4152 4153 0
-4153 4172 0
3523 -4153 4154 0
-4154 4173 0
3524 -4154 4155 0
-4155 4174 0
3527 -4155 0
-3525 4156 0
-3526 -4156 4157 0
3495 -4157 4158 0
3496 -4158 4159 0
3499 -4159 4160 0
3500 -4160 4161 0
3503 -4161 4162 0
3504 -4162 4163 0
3507 -4163 4164 0
3508 -4164 4165 0
3511 -4165 4166 0
3512 -4166 4167 0
3515 -4167 4168 0
3516 -4168 4169 0
3519 -4169 4170 0
3520 -4170 4171 0
3523 -4171 4172 0
3524 -4172 4173 0
3527 -4173 4174 0
3528 -4174 0
-4175 1 0
-4175 6 0
4175 -1 -6 0
-4176 10 0
-4176 15 0
4176 -10 -15 0
-4177 1 0
-4177 15 0
4177 -1 -15 0
-4178 10 0
-4178 6 0
4178 -10 -6 0
-4179 2 0
-4179 4 0
4179 -2 -4 0
-4180 11 0
-4180 13 0
4180 -11 -13 0
-4181 2 0
-4181 13 0
4181 -2 -13 0
-4182 11 0
-4182 4 0
4182 -11 -4 0
-4183 3 0
-4183 5 0
4183 -3 -5 0
-4184 12 0
-4184 14 0
4184 -12 -14 0
-4185 3 0
-4185 14 0
4185 -3 -14 0
-4186 12 0
-4186 5 0
4186 -12 -5 0
-4187 4 0
-4187 9 0
4187 -4 -9 0
-4188 13 0
-4188 18 0
4188 -13 -18 0
-4189 4 0
-4189 18 0
4189 -4 -18 0
-4190 13 0
-4190 9 0
4190 -13 -9 0
-4191 5 0
-4191 7 0
4191 -5 -7 0
-4192 14 0
-4192 16 0
4192 -14 -16 0
-4193 5 0
-4193 16 0
4193 -5 -16 0
-4194 14 0
-4194 7 0
4194 -14 -7 0
-4195 6 0
-4195 8 0
4195 -6 -8 0
-4196 15 0
-4196 17 0
4196 -15 -17 0
-4197 6 0
-4197 17 0
4197 -6 -17 0
-4198 15 0
-4198 8 0
4198 -15 -8 0
-4199 7 0
-4199 3 0
4199 -7 -3 0
-4200 16 0
-4200 12 0
4200 -16 -12 0
-4201 7 0
-4201 12 0
4201 -7 -12 0
-4202 16 0
-4202 3 0
4202 -16 -3 0
-4203 8 0
-4203 1 0
4203 -8 -1 0
-4204 17 0
-4204 10 0
4204 -17 -10 0
-4205 8 0
-4205 10 0
4205 -8 -10 0
-4206 17 0
-4206 1 0
4206 -17 -1 0
-4207 9 0
-4207 2 0
4207 -9 -2 0
-4208 18 0
-4208 11 0
4208 -18 -11 0
-4209 9 0
-4209 11 0
4209 -9 -11 0
-4210 18 0
-4210 2 0
4210 -18 -2 0
4175 4211 0
-4211 4212 0
4176 -4211 4213 0
-4213 4214 0
4179 -4213 4215 0
-4215 4216 0
4180 -4215 4217 0
-4217 4218 0
4183 -4217 4219 0
-4219 4220 0
4184 -4219 4221 0
-4221 4222 0
4187 -4221 4223 0
-4223 4224 0
4188 -4223 4225 0
-4225 4226 0
4191 -4225 4227 0
-4227 4228 0
4192 -4227 4229 0
-4229 4230 0
4195 -4229 4231 0
-4231 4232 0
4196 -4231 4233 0
-4233 4234 0
4199 -4233 4235 0
-4235 4236 0
4200 -4235 4237 0
-4237 4238 0
4203 -4237 4239 0
-4239 4240 0
4204 -4239 4241 0
-4241 4242 0
4207 -4241 4243 0
-4243 4244 0
4208 -4243 0
4176 4212 0
-4212 4245 0
4179 -4212 4214 0
-4214 4246 0
4180 -4214 4216 0
-4216 4247 0
4183 -4216 4218 0
-4218 4248 0
4184 -4218 4220 0
-4220 4249 0
4187 -4220 4222 0
-4222 4250 0
4188 -4222 4224 0
-4224 4251 0
4191 -4224 4226 0
-4226 4252 0
4192 -4226 4228 0
-4228 4253 0
4195 -4228 4230 0
-4230 4254 0
4196 -4230 4232 0
-4232 4255 0
4199 -4232 4234 0
-4234 4256 0
4200 -4234 4236 0
-4236 4257 0
4203 -4236 4238 0
-4238 4258 0
4204 -4238 4240 0
-4240 4259 0
4207 -4240 4242 0
-4242 4260 0
4208 -4242 4244 0
-4244 4261 0
-4177 -4244 0
4179 4245 0
-4245 4262 0
4180 -4245 4246 0
-4246 4263 0
4183 -4246 4247 0
-4247 4264 0
4184 -4247 4248 0
-4248 4265 0
4187 -4248 4249 0
-4249 4266 0
4188 -4249 4250 0
-4250 4267 0
4191 -4250 4251 0
-4251 4268 0
4192 -4251 4252 0
-4252 4269 0
4195 -4252 4253 0
-4253 4270 0
4196 -4253 4254 0
-4254 4271 0
4199 -4254 4255 0
-4255 4272 0
4200 -4255 4256 0
-4256 4273 0
4203 -4256 4257 0
-4257 4274 0
4204 -4257 4258 0
-4258 4275 0
4207 -4258 4259 0
-4259 4276 0
4208 -4259 4260 0
-4260 4277 0
-4177 -4260 4261 0
-4261 4278 0
-4178 -4261 0
4180 4262 0
-4262 4279 0
4183 -4262 4263 0
-4263 4280 0
4184 -4263 4264 0
-4264 4281 0
4187 -4264 4265 0
-4265 4282 0
4188 -4265 4266 0
-4266 4283 0
4191 -4266 4267 0
-4267 4284 0
4192 -4267 4268 0
-4268 4285 0
4195 -4268 4269 0
-4269 4286 0
4196 -4269 4270 0
-4270 4287 0
4199 -4270 4271 0
-4271 4288 0
4200 -4271 4272 0
-4272 4289 0
4203 -4272 4273 0
-4273 4290 0
4204 -4273 4274 0
-4274 4291 0
4207 -4274 4275 0
-4275 4292 0
4208 -4275 4276 0
-4276 4293 0
-4177 -4276 4277 0
-4277 4294 0
-4178 -4277 4278 0
-4278 4295 0
-4181 -4278 0
4183 4279 0
-4279 4296 0
4184 -4279 4280 0
-4280 4297 0
4187 -4280 4281 0
-4281 4298 0
4188 -4281 4282 0
-4282 4299 0
4191 -4282 4283 0
-4283 4300 0
4192 -4283 4284 0
-4284 4301 0
4195 -4284 4285 0
-4285 4302 0
4196 -4285 4286 0
-4286 4303 0
4199 -4286 4287 0
-4287 4304 0
4200 -4287 4288 0
-4288 4305 0
4203 -4288 4289 0
-4289 4306 0
4204 -4289 4290 0
-4290 4307 0
4207 -4290 4291 0
-4291 4308 0
4208 -4291 4292 0
-4292 4309 0
-4177 -4292 4293 0
-4293 4310 0
-4178 -4293 4294 0
-4294 4311 0
-4181 -4294 4295 0
-4295 4312 0
-4182 -4295 0
4184 4296 0
-4296 4313 0
4187 -4296 4297 0
-4297 4314 0
4188 -4297 4298 0
-4298 4315 0
4191 -4298 4299 0
-4299 4316 0
4192 -4299 4300 0
-4300 4317 0
4195 -4300 4301 0
-4301 4318 0
4196 -4301 4302 0
-4302 4319 0
4199 -4302 4303 0
-4303 4320 0
4200 -4303 4304 0
-4304 4321 0
4203 -4304 4305 0
-4305 4322 0
4204 -4305 4306 0
-4306 4323 0
4207 -4306 4307 0
-4307 4324 0
4208 -4307 4308 0
-4308 4325 0
-4177 -4308 4309 0
-4309 4326 0
-4178 -4309 4310 0
-4310 4327 0
-4181 -4310 4311 0
-4311 4328 0
-4182 -4311 4312 0
-4312 4329 0
-4185 -4312 0
4187 4313 0
-4313 4330 0
4188 -4313 4314 0
-4314 4331 0
4191 -4314 4315 0
-4315 4332 0
4192 -4315 4316 0
-4316 4333 0
4195 -4316 4317 0
-4317 4334 0
4196 -4317 4318 0
-4318 4335 0
4199 -4318 4319 0
-4319 4336 0
4200 -4319 4320 0
-4320 4337 0
4203 -4320 4321 0
-4321 4338 0
4204 -4321 4322 0
-4322 4339 0
4207 -4322 4323 0
-4323 4340 0
4208 -4323 4324 0
-4324 4341 0
-4177 -4324 4325 0
-4325 4342 0
-4178 -4325 4326 0
-4326 4343 0
-4181 -4326 4327 0
-4327 4344 0
-4182 -4327 4328 0
-4328 4345 0
-4185 -4328 4329 0
-4329 4346 0
-4186 -4329 0
4188 4330 0
-4330 4347 0
4191 -4330 4331 0
-4331 4348 0
4192 -4331 4332 0
-4332 4349 0
4195 -4332 4333 0
-4333 4350 0
4196 -4333 4334 0
-4334 4351 0
4199 -4334 4335 0
-4335 4352 0
4200 -4335 4336 0
-4336 4353 0
4203 -4336 4337 0
-4337 4354 0
4204 -4337 4338 0
-4338 4355 0
4207 -4338 4339 0
-4339 4356 0
4208 -4339 4340 0
-4340 4357 0
-4177 -4340 4341 0
-4341 4358 0
-4178 -4341 4342 0
-4342 4359 0
-4181 -4342 4343 0
-4343 4360 0
-4182 -4343 4344 0
-4344 4361 0
-4185 -4344 4345 0
-4345 4362 0
-4186 -4345 4346 0
-4346 4363 0
-4189 -4346 0
4191 4347 0
-4347 4364 0
4192 -4347 4348 0
-4348 4365 0
4195 -4348 4349 0
-4349 4366 0
4196 -4349 4350 0
-4350 4367 0
4199 -4350 4351 0
-4351 4368 0
4200 -4351 4352 0
-4352 4369 0
4203 -4352 4353 0
-4353 4370 0
4204 -4353 4354 0
-4354 4371 0
4207 -4354 4355 0
-4355 4372 0
4208 -4355 4356 0
-4356 4373 0
-4177 -4356 4357 0
-4357 4374 0
-4178 -4357 4358 0
-4358 4375 0
-4181 -4358 4359 0
-4359 4376 0
-4182 -4359 4360 0
-4360 4377 0
-4185 -4360 4361 0
-4361 4378 0
-4186 -4361 4362 0
-4362 4379 0
-4189 -4362 4363 0
-4363 4380 0
-4190 -4363 0
4192 4364 0
-4364 4381 0
4195 -4364 4365 0
-4365 4382 0
4196 -4365 4366 0
-4366 4383 0
4199 -4366 4367 0
-4367 4384 0
4200 -4367 4368 0
-4368 4385 0
4203 -4368 4369 0
-4369 4386 0
4204 -4369 4370 0
-4370 4387 0
4207 -4370 4371 0
-4371 4388 0
4208 -4371 4372 0
-4372 4389 0
-4177 -4372 4373 0
-4373 4390 0
-4178 -4373 4374 0
-4374 4391 0
-4181 -4374 4375 0
-4375 4392 0
-4182 -4375 4376 0
-4376 4393 0
-4185 -4376 4377 0
-4377 4394 0
-4186 -4377 4378 0
-4378 4395 0
-4189 -4378 4379 0
-4379 4396 0
-4190 -4379 4380 0
-4380 4397 0
-4193 -4380 0
4195 4381 0
-4381 4398 0
4196 -4381 4382 0
-4382 4399 0
4199 -4382 4383 0
-4383 4400 0
4200 -4383 4384 0
-4384 4401 0
4203 -4384 4385 0
-4385 4402 0
4204 -4385 4386 0
-4386 4403 0
4207 -4386 4387 0
-4387 4404 0
4208 -4387 4388 0
-4388 4405 0
-4177 -4388 4389 0
-4389 4406 0
-4178 -4389 4390 0
-4390 4407 0
-4181 -4390 4391 0
-4391 4408 0
-4182 -4391 4392 0
-4392 4409 0
-4185 -4392 4393 0
-4393 4410 0
-4186 -4393 4394 0
-4394 4411 0
-4189 -4394 4395 0
-4395 4412 0
-4190 -4395 4396 0
-4396 4413 0
-4193 -4396 4397 0
-4397 4414 0
-4194 -4397 0
4196 4398 0
-4398 4415 0
4199 -4398 4399 0
-4399 4416 0
4200 -4399 4400 0
-4400 4417 0
4203 -4400 4401 0
-4401 4418 0
4204 -4401 4402 0
-4402 4419 0
4207 -4402 4403 0
-4403 4420 0
4208 -4403 4404 0
-4404 4421 0
-4177 -4404 4405 0
-4405 4422 0
-4178 -4405 4406 0
-4406 4423 0
-4181 -4406 4407 0
-4407 4424 0
-4182 -4407 4408 0
-4408 4425 0
-4185 -4408 4409 0
-4409 4426 0
-4186 -4409 4410 0
-4410 4427 0
-4189 -4410 4411 0
-4411 4428 0
-4190 -4411 4412 0
-4412 4429 0
-4193 -4412 4413 0
-4413 4430 0
-4194 -4413 4414 0
-4414 4431 0
-4197 -4414 0
4199 4415 0
-4415 4432 0
4200 -4415 4416 0
-4416 4433 0
4203 -4416 4417 0
-4417 4434 0
4204 -4417 4418 0
-4418 4435 0
4207 -4418 4419 0
-4419 4436 0
4208 -4419 4420 0
-4420 4437 0
-4177 -4420 4421 0
-4421 4438 0
-4178 -4421 4422 0
-4422 4439 0
-4181 -4422 4423 0
-4423 4440 0
-4182 -4423 4424 0
-4424 4441 0
-4185 -4424 4425 0
-4425 4442 0
-4186 -4425 4426 0
-4426 4443 0
-4189 -4426 4427 0
-4427 4444 0
-4190 -4427 4428 0
-4428 4445 0
-4193 -4428 4429 0
-4429 4446 0
-4194 -4429 4430 0
-4430 4447 0
-4197 -4430 4431 0
-4431 4448 0
-4198 -4431 0
4200 4432 0
-4432 4449 0
4203 -4432 4433 0
-4433 4450 0
4204 -4433 4434 0
-4434 4451 0
4207 -4434 4435 0
-4435 4452 0
4208 -4435 4436 0
-4436 4453 0
-4177 -4436 4437 0
-4437 4454 0
-4178 -4437 4438 0
-4438 4455 0
-4181 -4438 4439 0
-4439 4456 0
-4182 -4439 4440 0
-4440 4457 0
-4185 -4440 4441 0
-4441 4458 0
-4186 -4441 4442 0
-4442 4459 0
-4189 -4442 4443 0
-4443 4460 0
-4190 -4443 4444 0
-4444 4461 0
-4193 -4444 4445 0
-4445 4462 0
-4194 -4445 4446 0
-4446 4463 0
-4197 -4446 4447 0
-4447 4464 0
-4198 -4447 4448 0
-4448 4465 0
-4201 -4448 0
4203 4449 0
-4449 4466 0
4204 -4449 4450 0
-4450 4467 0
4207 -4450 4451 0
-4451 4468 0
4208 -4451 4452 0
-4452 4469 0
-4177 -4452 4453 0
-4453 4470 0
-4178 -4453 4454 0
-4454 4471 0
-4181 -4454 4455 0
-4455 4472 0
-4182 -4455 4456 0
-4456 4473 0
-4185 -4456 4457 0
-4457 4474 0
-4186 -4457 4458 0
-4458 4475 0
-4189 -4458 4459 0
-4459 4476 0
-4190 -4459 4460 0
-4460 4477 0
-4193 -4460 4461 0
-4461 4478 0
-4194 -4461 4462 0
-4462 4479 0
-4197 -4462 4463 0
-4463 4480 0
-4198 -4463 4464 0
-4464 4481 0
-4201 -4464 4465 0
-4465 4482 0
-4202 -4465 0
4204 4466 0
-4466 4483 0
4207 -4466 4467 0
-4467 4484 0
4208 -4467 4468 0
-4468 4485 0
-4177 -4468 4469 0
-4469 4486 0
-4178 -4469 4470 0
-4470 4487 0
-4181 -4470 4471 0
-4471 4488 0
-4182 -4471 4472 0
-4472 4489 0
-4185 -4472 4473 0
-4473 4490 0
-4186 -4473 4474 0
-4474 4491 0
-4189 -4474 4475 0
-4475 4492 0
-4190 -4475 4476 0
-4476 4493 0
-4193 -4476 4477 0
-4477 4494 0
-4194 -4477 4478 0
-4478 4495 0
-4197 -4478 4479 0
-4479 4496 0
-4198 -4479 4480 0
-4480 4497 0
-4201 -4480 4481 0
-4481 4498 0
-4202 -4481 4482 0
-4482 4499 0
-4205 -4482 0
4207 4483 0
-4483 4500 0
4208 -4483 4484 0
-4484 4501 0
-4177 -4484 4485 0
-4485 4502 0
-4178 -4485 4486 0
-4486 4503 0
-4181 -4486 4487 0
-4487 4504 0
-4182 -4487 4488 0
-4488 4505 0
-4185 -4488 4489 0
-4489 4506 0
-4186 -4489 4490 0
-4490 4507 0
-4189 -4490 4491 0
-4491 4508 0
-4190 -4491 4492 0
-4492 4509 0
-4193 -4492 4493 0
-4493 4510 0
-4194 -4493 4494 0
-4494 4511 0
-4197 -4494 4495 0
-4495 4512 0
-4198 -4495 4496 0
-4496 4513 0
-4201 -4496 4497 0
-4497 4514 0
-4202 -4497 4498 0
-4498 4515 0
-4205 -4498 4499 0
-4499 4516 0
-4206 -4499 0
4208 4500 0
-4500 4517 0
-4177 -4500 4501 0
-4501 4518 0
-4178 -4501 4502 0
-4502 4519 0
-4181 -4502 4503 0
-4503 4520 0
-4182 -4503 4504 0
-4504 4521 0
-4185 -4504 4505 0
-4505 4522 0
-4186 -4505 4506 0
-4506 4523 0
-4189 -4506 4507 0
-4507 4524 0
-4190 -4507 4508 0
-4508 4525 0
-4193 -4508 4509 0
-4509 4526 0
-4194 -4509 4510 0
-4510 4527 0
-4197 -4510 4511 0
-4511 4528 0
-4198 -4511 4512 0
-4512 4529 0
-4201 -4512 4513 0
-4513 4530 0
-4202 -4513 4514 0
-4514 4531 0
-4205 -4514 4515 0
-4515 4532 0
-4206 -4515 4516 0
-4516 4533 0
-4209 -4516 0
-4177 4517 0
-4178 -4517 4518 0
-4181 -4518 4519 0
-4182 -4519 4520 0
-4185 -4520 4521 0
-4186 -4521 4522 0
-4189 -4522 4523 0
-4190 -4523 4524 0
-4193 -4524 4525 0
-4194 -4525 4526 0
-4197 -4526 4527 0
-4198 -4527 4528 0
-4201 -4528 4529 0
-4202 -4529 4530 0
-4205 -4530 4531 0
-4206 -4531 4532 0
-4209 -4532 4533 0
-4210 -4533 0
-4175 4534 0
-4534 4535 0
-4176 -4534 4536 0
-4536 4537 0
-4179 -4536 4538 0
-4538 4539 0
-4180 -4538 4540 0
-4540 4541 0
-4183 -4540 4542 0
-4542 4543 0
-4184 -4542 4544 0
-4544 4545 0
-4187 -4544 4546 0
-4546 4547 0
-4188 -4546 4548 0
-4548 4549 0
-4191 -4548 4550 0
-4550 4551 0
-4192 -4550 4552 0
-4552 4553 0
-4195 -4552 4554 0
-4554 4555 0
-4196 -4554 4556 0
-4556 4557 0
-4199 -4556 4558 0
-4558 4559 0
-4200 -4558 4560 0
-4560 4561 0
-4203 -4560 4562 0
-4562 4563 0
-4204 -4562 4564 0
-4564 4565 0
-4207 -4564 4566 0
-4566 4567 0
-4208 -4566 4568 0
-4568 4569 0
4177 -4568 4570 0
-4570 4571 0
4178 -4570 0
-4176 4535 0
-4535 4572 0
-4179 -4535 4537 0
-4537 4573 0
-4180 -4537 4539 0
-4539 4574 0
-4183 -4539 4541 0
-4541 4575 0
-4184 -4541 4543 0
-4543 4576 0
-4187 -4543 4545 0
-4545 4577 0
-4188 -4545 4547 0
-4547 4578 0
-4191 -4547 4549 0
-4549 4579 0
-4192 -4549 4551 0
-4551 4580 0
-4195 -4551 4553 0
-4553 4581 0
-4196 -4553 4555 0
-4555 4582 0
-4199 -4555 4557 0
-4557 4583 0
-4200 -4557 4559 0
-4559 4584 0
-4203 -4559 4561 0
-4561 4585 0
-4204 -4561 4563 0
-4563 4586 0
-4207 -4563 4565 0
-4565 4587 0
-4208 -4565 4567 0
-4567 4588 0
4177 -4567 4569 0
-4569 4589 0
4178 -4569 4571 0
-4571 4590 0
4181 -4571 0
-4179 4572 0
-4572 4591 0
-4180 -4572 4573 0
-4573 4592 0
-4183 -4573 4574 0
-4574 4593 0
-4184 -4574 4575 0
-4575 4594 0
-4187 -4575 4576 0
-4576 4595 0
-4188 -4576 4577 0
-4577 4596 0
-4191 -4577 4578 0
-4578 4597 0
-4192 -4578 4579 0
-4579 4598 0
-4195 -4579 4580 0
-4580 4599 0
-4196 -4580 4581 0
-4581 4600 0
-4199 -4581 4582 0
-4582 4601 0
-4200 -4582 4583 0
-4583 4602 0
-4203 -4583 4584 0
-4584 4603 0
-4204 -4584 4585 0
-4585 4604 0
-4207 -4585 4586 0
-4586 4605 0
-4208 -4586 4587 0
-4587 4606 0
4177 -4587 4588 0
-4588 4607 0
4178 -4588 4589 0
-4589 4608 0
4181 -4589 4590 0
-4590 4609 0
4182 -4590 0
-4180 4591 0
-4591 4610 0
-4183 -4591 4592 0
-4592 4611 0
-4184 -4592 4593 0
-4593 4612 0
-4187 -4593 4594 0
-4594 4613 0
-4188 -4594 4595 0
-4595 4614 0
-4191 -4595 4596 0
-4596 4615 0
-4192 -4596 4597 0
-4597 4616 0
-4195 -4597 4598 0
-4598 4617 0
-4196 -4598 4599 0
-4599 4618 0
-4199 -4599 4600 0
-4600 4619 0
-4200 -4600 4601 0
-4601 4620 0
-4203 -4601 4602 0
-4602 4621 0
-4204 -4602 4603 0
-4603 4622 0
-4207 -4603 4604 0
-4604 4623 0
-4208 -4604 4605 0
-4605 4624 0
4177 -4605 4606 0
-4606 4625 0
4178 -4606 4607 0
-4607 4626 0
4181 -4607 4608 0
-4608 4627 0
4182 -4608 4609 0
-4609 4628 0
4185 -4609 0
-4183 4610 0
-4610 4629 0
-4184 -4610 4611 0
-4611 4630 0
-4187 -4611 4612 0
-4612 4631 0
-4188 -4612 4613 0
-4613 4632 0
-4191 -4613 4614 0
-4614 4633 0
-4192 -4614 4615 0
-4615 4634 0
-4195 -4615 4616 0
-4616 4635 0
-4196 -4616 4617 0
-4617 4636 0
-4199 -4617 4618 0
-4618 4637 0
-4200 -4618 4619 0
-4619 4638 0
-4203 -4619 4620 0
-4620 4639 0
-4204 -4620 4621 0
-4621 4640 0
-4207 -4621 4622 0
-4622 4641 0
-4208 -4622 4623 0
-4623 4642 0
4177 -4623 4624 0
-4624 4643 0
4178 -4624 4625 0
-4625 4644 0
4181 -4625 4626 0
-4626 4645 0
4182 -4626 4627 0
-4627 4646 0
4185 -4627 4628 0
-4628 4647 0
4186 -4628 0
-4184 4629 0
-4629 4648 0
-4187 -4629 4630 0
-4630 4649 0
-4188 -4630 4631 0
-4631 4650 0
-4191 -4631 4632 0
-4632 4651 0
-4192 -4632 4633 0
-4633 4652 0
-4195 -4633 4634 0
-4634 4653 0
-4196 -4634 4635 0
-4635 4654 0
-4199 -4635 4636 0
-4636 4655 0
-4200 -4636 4637 0
-4637 4656 0
-4203 -4637 4638 0
-4638 4657 0
-4204 -4638 4639 0
-4639 4658 0
-4207 -4639 4640 0
-4640 4659 0
-4208 -4640 4641 0
-4641 4660 0
4177 -4641 4642 0
-4642 4661 0
4178 -4642 4643 0
-4643 4662 0
4181 -4643 4644 0
-4644 4663 0
4182 -4644 4645 0
-4645 4664 0
4185 -4645 4646 0
-4646 4665 0
4186 -4646 4647 0
-4647 4666 0
4189 -4647 0
-4187 4648 0
-4648 4667 0
-4188 -4648 4649 0
-4649 4668 0
-4191 -4649 4650 0
-4650 4669 0
-4192 -4650 4651 0
-4651 4670 0
-4195 -4651 4652 0
-4652 4671 0
-4196 -4652 4653 0
-4653 4672 0
-4199 -4653 4654 0
-4654 4673 0
-4200 -4654 4655 0
-4655 4674 0
-4203 -4655 4656 0
-4656 4675 0
-4204 -4656 4657 0
-4657 4676 0
-4207 -4657 4658 0
-4658 4677 0
-4208 -4658 4659 0
-4659 4678 0
4177 -4659 4660 0
-4660 4679 0
4178 -4660 4661 0
-4661 4680 0
4181 -4661 4662 0
-4662 4681 0
4182 -4662 4663 0
-4663 4682 0
4185 -4663 4664 0
-4664 4683 0
4186 -4664 4665 0
-4665 4684 0
4189 -4665 4666 0
-4666 4685 0
4190 -4666 0
-4188 4667 0
-4667 4686 0
-4191 -4667 4668 0
-4668 4687 0
-4192 -4668 4669 0
-4669 4688 0
-4195 -4669 4670 0
-4670 4689 0
-4196 -4670 4671 0
-4671 4690 0
-4199 -4671 4672 0
-4672 4691 0
-4200 -4672 4673 0
-4673 4692 0
-4203 -4673 4674 0
-4674 4693 0
-4204 -4674 4675 0
-4675 4694 0
-4207 -4675 4676 0
-4676 4695 0
-4208 -4676 4677 0
-4677 4696 0
4177 -4677 4678 0
-4678 4697 0
4178 -4678 4679 0
-4679 4698 0
4181 -4679 4680 0
-4680 4699 0
4182 -4680 4681 0
-4681 4700 0
4185 -4681 4682 0
-4682 4701 0
4186 -4682 4683 0
-4683 4702 0
4189 -4683 4684 0
-4684 4703 0
4190 -4684 4685 0
-4685 4704 0
4193 -4685 0
-4191 4686 0
-4686 4705 0
-4192 -4686 4687 0
-4687 4706 0
-4195 -4687 4688 0
-4688 4707 0
-4196 -4688 4689 0
-4689 4708 0
-4199 -4689 4690 0
-4690 4709 0
-4200 -4690 4691 0
-4691 4710 0
-4203 -4691 4692 0
-4692 4711 0
-4204 -4692 4693 0
-4693 4712 0
-4207 -4693 4694 0
-4694 4713 0
-4208 -4694 4695 0
-4695 4714 0
4177 -4695 4696 0
-4696 4715 0
4178 -4696 4697 0
-4697 4716 0
4181 -4697 4698 0
-4698 4717 0
4182 -4698 4699 0
-4699 4718 0
4185 -4699 4700 0
-4700 4719 0
4186 -4700 4701 0
-4701 4720 0
4189 -4701 4702 0
-4702 4721 0
4190 -4702 4703 0
-4703 4722 0
4193 -4703 4704 0
-4704 4723 0
4194 -4704 0
-4192 4705 0
-4705 4724 0
-4195 -4705 4706 0
-4706 4725 0
-4196 -4706 4707 0
-4707 4726 0
-4199 -4707 4708 0
-4708 4727 0
-4200 -4708 4709 0
-4709 4728 0
-4203 -4709 4710 0
-4710 4729 0
-4204 -4710 4711 0
-4711 4730 0
-4207 -4711 4712 0
-4712 4731 0
-4208 -4712 4713 0
-4713 4732 0
4177 -4713 4714 0
-4714 4733 0
4178 -4714 4715 0
-4715 4734 0
4181 -4715 4716 0
-4716 4735 0
4182 -4716 4717 0
-4717 4736 0
4185 -4717 4718 0
-4718 4737 0
4186 -4718 4719 0
-4719 4738 0
4189 -4719 4720 0
-4720 4739 0
4190 -4720 4721 0
-4721 4740 0
4193 -4721 4722 0
-4722 4741 0
4194 -4722 4723 0
-4723 4742 0
4197 -4723 0
-4195 4724 0
-4724 4743 0
-4196 -4724 4725 0
-4725 4744 0
-4199 -4725 4726 0
-4726 4745 0
-4200 -4726 4727 0
-4727 4746 0
-4203 -4727 4728 0
-4728 4747 0
-4204 -4728 4729 0
-4729 4748 0
-4207 -4729 4730 0
-4730 4749 0
-4208 -4730 4731 0
-4731 4750 0
4177 -4731 4732 0
-4732 4751 0
4178 -4732 4733 0
-4733 4752 0
4181 -4733 4734 0
-4734 4753 0
4182 -4734 4735 0
-4735 4754 0
4185 -4735 4736 0
-4736 4755 0
4186 -4736 4737 0
-4737 4756 0
4189 -4737 4738 0
-4738 4757 0
4190 -4738 4739 0
-4739 4758 0
4193 -4739 4740 0
-4740 4759 0
4194 -4740 4741 0
-4741 4760 0
4197 -4741 4742 0
-4742 4761 0
4198 -4742 0
-4196 4743 0
-4743 4762 0
-4199 -4743 4744 0
-4744 4763 0
-4200 -4744 4745 0
-4745 4764 0
-4203 -4745 4746 0
-4746 4765 0
-4204 -4746 4747 0
-4747 4766 0
-4207 -4747 4748 0
-4748 4767 0
-4208 -4748 4749 0
-4749 4768 0
4177 -4749 4750 0
-4750 4769 0
4178 -4750 4751 0
-4751 4770 0
4181 -4751 4752 0
-4752 4771 0
4182 -4752 4753 0
-4753 4772 0
4185 -4753 4754 0
-4754 4773 0
4186 -4754 4755 0
-4755 4774 0
4189 -4755 4756 0
-4756 4775 0
4190 -4756 4757 0
-4757 4776 0
4193 -4757 4758 0
-4758 4777 0
4194 -4758 4759 0
-4759 4778 0
4197 -4759 4760 0
-4760 4779 0
4198 -4760 4761 0
-4761 4780 0
4201 -4761 0
-4199 4762 0
-4762 4781 0
-4200 -4762 4763 0
-4763 4782 0
-4203 -4763 4764 0
-4764 4783 0
-4204 -4764 4765 0
-4765 4784 0
-4207 -4765 4766 0
-4766 4785 0
-4208 -4766 4767 0
-4767 4786 0
4177 -4767 4768 0
-4768 4787 0
4178 -4768 4769 0
-4769 4788 0
4181 -4769 4770 0
-4770 4789 0
4182 -4770 4771 0
-4771 4790 0
4185 -4771 4772 0
-4772 4791 0
4186 -4772 4773 0
-4773 4792 0
4189 -4773 4774 0
-4774 4793 0
4190 -4774 4775 0
-4775 4794 0
4193 -4775 4776 0
-4776 4795 0
4194 -4776 4777 0
-4777 4796 0
4197 -4777 4778 0
-4778 4797 0
4198 -4778 4779 0
-4779 4798 0
4201 -4779 4780 0
-4780 4799 0
4202 -4780 0
-4200 4781 0
-4781 4800 0
-4203 -4781 4782 0
-4782 4801 0
-4204 -4782 4783 0
-4783 4802 0
-4207 -4783 4784 0
-4784 4803 0
-4208 -4784 4785 0
-4785 4804 0
4177 -4785 4786 0
-4786 4805 0
4178 -4786 4787 0
-4787 4806 0
4181 -4787 4788 0
-4788 4807 0
4182 -4788 4789 0
-4789 4808 0
4185 -4789 4790 0
-4790 4809 0
4186 -4790 4791 0
-4791 4810 0
4189 -4791 4792 0
-4792 4811 0
4190 -4792 4793 0
-4793 4812 0
4193 -4793 4794 0
-4794 4813 0
4194 -4794 4795 0
-4795 4814 0
4197 -4795 4796 0
-4796 4815 0
4198 -4796 4797 0
-4797 4816 0
4201 -4797 4798 0
-4798 4817 0
4202 -4798 4799 0
-4799 4818 0
4205 -4799 0
-4203 4800 0
-4800 4819 0
-4204 -4800 4801 0
-4801 4820 0
-4207 -4801 4802 0
-4802 4821 0
-4208 -4802 4803 0
-4803 4822 0
4177 -4803 4804 0
-4804 4823 0
4178 -4804 4805 0
-4805 4824 0
4181 -4805 4806 0
-4806 4825 0
4182 -4806 4807 0
-4807 4826 0
4185 -4807 4808 0
-4808 4827 0
4186 -4808 4809 0
-4809 4828 0
4189 -4809 4810 0
-4810 4829 0
4190 -4810 4811 0
-4811 4830 0
4193 -4811 4812 0
-4812 4831 0
4194 -4812 4813 0
-4813 4832 0
4197 -4813 4814 0
-4814 4833 0
4198 -4814 4815 0
-4815 4834 0
4201 -4815 4816 0
-4816 4835 0
4202 -4816 4817 0
-4817 4836 0
4205 -4817 4818 0
-4818 4837 0
4206 -4818 0
-4204 4819 0
-4819 4838 0
-4207 -4819 4820 0
-4820 4839 0
-4208 -4820 4821 0
-4821 4840 0
4177 -4821 4822 0
-4822 4841 0
4178 -4822 4823 0
-4823 4842 0
4181 -4823 4824 0
-4824 4843 0
4182 -4824 4825 0
-4825 4844 0
4185 -4825 4826 0
-4826 4845 0
4186 -4826 4827 0
-4827 4846 0
4189 -4827 4828 0
-4828 4847 0
4190 -4828 4829 0
-4829 4848 0
4193 -4829 4830 0
-4830 4849 0
4194 -4830 4831 0
-4831 4850 0
4197 -4831 4832 0
-4832 4851 0
4198 -4832 4833 0
-4833 4852 0
4201 -4833 4834 0
-4834 4853 0
4202 -4834 4835 0
-4835 4854 0
4205 -4835 4836 0
-4836 4855 0
4206 -4836 4837 0
-4837 4856 0
4209 -4837 0
-4207 4838 0
-4208 -4838 4839 0
4177 -4839 4840 0
4178 -4840 4841 0
4181 -4841 4842 0
4182 -4842 4843 0
4185 -4843 4844 0
4186 -4844 4845 0
4189 -4845 4846 0
4190 -4846 4847 0
4193 -4847 4848 0
4194 -4848 4849 0
4197 -4849 4850 0
4198 -4850 4851 0
4201 -4851 4852 0
4202 -4852 4853 0
4205 -4853 4854 0
4206 -4854 4855 0
4209 -4855 4856 0
4210 -4856 0
-4857 1 0
-4857 5 0
4857 -1 -5 0
-4858 10 0
-4858 14 0
4858 -10 -14 0
-4859 1 0
-4859 14 0
4859 -1 -14 0
-4860 10 0
-4860 5 0
4860 -10 -5 0
-4861 2 0
-4861 6 0
4861 -2 -6 0
-4862 11 0
-4862 15 0
4862 -11 -15 0
-4863 2 0
-4863 15 0
4863 -2 -15 0
-4864 11 0
-4864 6 0
4864 -11 -6 0
-4865 3 0
-4865 4 0
4865 -3 -4 0
-4866 12 0
-4866 13 0
4866 -12 -13 0
-4867 3 0
-4867 13 0
4867 -3 -13 0
-4868 12 0
-4868 4 0
4868 -12 -4 0
-4869 4 0
-4869 8 0
4869 -4 -8 0
-4870 13 0
-4870 17 0
4870 -13 -17 0
-4871 4 0
-4871 17 0
4871 -4 -17 0
-4872 13 0
-4872 8 0
4872 -13 -8 0
-4873 5 0
-4873 9 0
4873 -5 -9 0
-4874 14 0
-4874 18 0
4874 -14 -18 0
-4875 5 0
-4875 18 0
4875 -5 -18 0
-4876 14 0
-4876 9 0
4876 -14 -9 0
-4877 6 0
-4877 7 0
4877 -6 -7 0
-4878 15 0
-4878 16 0
4878 -15 -16 0
-4879 6 0
-4879 16 0
4879 -6 -16 0
-4880 15 0
-4880 7 0
4880 -15 -7 0
-4881 7 0
-4881 2 0
4881 -7 -2 0
-4882 16 0
-4882 11 0
4882 -16 -11 0
-4883 7 0
-4883 11 0
4883 -7 -11 0
-4884 16 0
-4884 2 0
4884 -16 -2 0
-4885 8 0
-4885 3 0
4885 -8 -3 0
-4886 17 0
-4886 12 0
4886 -17 -12 0
-4887 8 0
-4887 12 0
4887 -8 -12 0
-4888 17 0
-4888 3 0
4888 -17 -3 0
-4889 9 0
-4889 1 0
4889 -9 -1 0
-4890 18 0
-4890 10 0
4890 -18 -10 0
-4891 9 0
-4891 10 0
4891 -9 -10 0
-4892 18 0
-4892 1 0
4892 -18 -1 0
4857 4893 0
-4893 4894 0
4858 -4893 4895 0
-4895 4896 0
4861 -4895 4897 0
-4897 4898 0
4862 -4897 4899 0
-4899 4900 0
4865 -4899 4901 0
-4901 4902 0
4866 -4901 4903 0
-4903 4904 0
4869 -4903 4905 0
-4905 4906 0
4870 -4905 4907 0
-4907 4908 0
4873 -4907 4909 0
-4909 4910 0
4874 -4909 4911 0
-4911 4912 0
4877 -4911 4913 0
-4913 4914 0
4878 -4913 4915 0
-4915 4916 0
4881 -4915 4917 0
-4917 4918 0
4882 -4917 4919 0
-4919 4920 0
4885 -4919 4921 0
-4921 4922 0
4886 -4921 4923 0
-4923 4924 0
4889 -4923 4925 0
-4925 4926 0
4890 -4925 0
4858 4894 0
-4894 4927 0
4861 -4894 4896 0
-4896 4928 0
4862 -4896 4898 0
-4898 4929 0
4865 -4898 4900 0
-4900 4930 0
4866 -4900 4902 0
-4902 4931 0
4869 -4902 4904 0
-4904 4932 0
4870 -4904 4906 0
-4906 4933 0
4873 -4906 4908 0
-4908 4934 0
4874 -4908 4910 0
-4910 4935 0
4877 -4910 4912 0
-4912 4936 0
4878 -4912 4914 0
-4914 4937 0
4881 -4914 4916 0
-4916 4938 0
4882 -4916 4918 0
-4918 4939 0
4885 -4918 4920 0
-4920 4940 0
4886 -4920 4922 0
-4922 4941 0
4889 -4922 4924 0
-4924 4942 0
4890 -4924 4926 0
-4926 4943 0
-4859 -4926 0
4861 4927 0
-4927 4944 0
4862 -4927 4928 0
-4928 4945 0
4865 -4928 4929 0
-4929 4946 0
4866 -4929 4930 0
-4930 4947 0
4869 -4930 4931 0
-4931 4948 0
4870 -4931 4932 0
-4932 4949 0
4873 -4932 4933 0
-4933 4950 0
4874 -4933 4934 0
-4934 4951 0
4877 -4934 4935 0
-4935 4952 0
4878 -4935 4936 0
-4936 4953 0
4881 -4936 4937 0
-4937 4954 0
4882 -4937 4938 0
-4938 4955 0
4885 -4938 4939 0
-4939 4956 0
4886 -4939 4940 0
-4940 4957 0
4889 -4940 4941 0
-4941 4958 0
4890 -4941 4942 0
-4942 4959 0
-4859 -4942 4943 0
-4943 4960 0
-4860 -4943 0
4862 4944 0
-4944 4961 0
4865 -4944 4945 0
-4945 4962 0
4866 -4945 4946 0
-4946 4963 0
4869 -4946 4947 0
-4947 4964 0
4870 -4947 4948 0
-4948 4965 0
4873 -4948 4949 0
-4949 4966 0
4874 -4949 4950 0
-4950 4967 0
4877 -4950 4951 0
-4951 4968 0
4878 -4951 4952 0
-4952 4969 0
4881 -4952 4953 0
-4953 4970 0
4882 -4953 4954 0
-4954 4971 0
4885 -4954 4955 0
-4955 4972 0
4886 -4955 4956 0
-4956 4973 0
4889 -4956 4957 0
-4957 4974 0
4890 -4957 4958 0
-4958 4975 0
-4859 -4958 4959 0
-4959 4976 0
-4860 -4959 4960 0
-4960 4977 0
-4863 -4960 0
4865 4961 0
-4961 4978 0
4866 -4961 4962 0
-4962 4979 0
4869 -4962 4963 0
-4963 4980 0
4870 -4963 4964 0
-4964 4981 0
4873 -4964 4965 0
-4965 4982 0
4874 -4965 4966 0
-4966 4983 0
4877 -4966 4967 0
-4967 4984 0
4878 -4967 4968 0
-4968 4985 0
4881 -4968 4969 0
-4969 4986 0
4882 -4969 4970 0
-4970 4987 0
4885 -4970 4971 0
-4971 4988 0
4886 -4971 4972 0
-4972 4989 0
4889 -4972 4973 0
-4973 4990 0
4890 -4973 4974 0
-4974 4991 0
-4859 -4974 4975 0
-4975 4992 0
-4860 -4975 4976 0
-4976 4993 0
-4863 -4976 4977 0
-4977 4994 0
-4864 -4977 0
4866 4978 0
-4978 4995 0
4869 -4978 4979 0
-4979 4996 0
4870 -4979 4980 0
-4980 4997 0
4873 -4980 4981 0
-4981 4998 0
4874 -4981 4982 0
-4982 4999 0
4877 -4982 4983 0
-4983 5000 0
4878 -4983 4984 0
-4984 5001 0
4881 -4984 4985 0
-4985 5002 0
4882 -4985 4986 0
-4986 5003 0
4885 -4986 4987 0
-4987 5004 0
4886 -4987 4988 0
-4988 5005 0
4889 -4988 4989 0
-4989 5006 0
4890 -4989 4990 0
-4990 5007 0
-4859 -4990 4991 0
-4991 5008 0
-4860 -4991 4992 0
-4992 5009 0
-4863 -4992 4993 0
-4993 5010 0
-4864 -4993 4994 0
-4994 5011 0
-4867 -4994 0
4869 4995 0
-4995 5012 0
4870 -4995 4996 0
-4996 5013 0
4873 -4996 4997 0
-4997 5014 0
4874 -4997 4998 0
-4998 5015 0
4877 -4998 4999 0
-4999 5016 0
4878 -4999 5000 0
-5000 5017 0
4881 -5000 5001 0
-5001 5018 0
4882 -5001 5002 0
-5002 5019 0
4885 -5002 5003 0
-5003 5020 0
4886 -5003 5004 0
-5004 5021 0
4889 -5004 5005 0
-5005 5022 0
4890 -5005 5006 0
-5006 5023 0
-4859 -5006 5007 0
-5007 5024 0
-4860 -5007 5008 0
-5008 5025 0
-4863 -5008 5009 0
-5009 5026 0
-4864 -5009 5010 0
-5010 5027 0
-4867 -5010 5011 0
-5011 5028 0
-4868 -5011 0
4870 5012 0
-5012 5029 0
4873 -5012 5013 0
-5013 5030 0
4874 -5013 5014 0
-5014 5031 0
4877 -5014 5015 0
-5015 5032 0
4878 -5015 5016 0
-5016 5033 0
4881 -5016 5017 0
-5017 5034 0
4882 -5017 5018 0
-5018 5035 0
4885 -5018 5019 0
-5019 5036 0
4886 -5019 5020 0
-5020 5037 0
4889 -5020 5021 0
-5021 5038 0
4890 -5021 5022 0
-5022 5039 0
-4859 -5022 5023 0
-5023 5040 0
-4860 -5023 5024 0
-5024 5041 0
-4863 -5024 5025 0
-5025 5042 0
-4864 -5025 5026 0
-5026 5043 0
-4867 -5026 5027 0
-5027 5044 0
-4868 -5027 5028 0
-5028 5045 0
-4871 -5028 0
4873 5029 0
-5029 5046 0
4874 -5029 5030 0
-5030 5047 0
4877 -5030 5031 0
-5031 5048 0
4878 -5031 5032 0
-5032 5049 0
4881 -5032 5033 0
-5033 5050 0
4882 -5033 5034 0
-5034 5051 0
4885 -5034 5035 0
-5035 5052 0
4886 -5035 5036 0
-5036 5053 0
4889 -5036 5037 0
-5037 5054 0
4890 -5037 5038 0
-5038 5055 0
-4859 -5038 5039 0
-5039 5056 0
-4860 -5039 5040 0
-5040 5057 0
-4863 -5040 5041 0
-5041 5058 0
-4864 -5041 5042 0
-5042 5059 0
-4867 -5042 5043 0
-5043 5060 0
-4868 -5043 5044 0
-5044 5061 0
-4871 -5044 5045 0
-5045 5062 0
-4872 -5045 0
4874 5046 0
-5046 5063 0
4877 -5046 5047 0
-5047 5064 0
4878 -5047 5048 0
-5048 5065 0
4881 -5048 5049 0
-5049 5066 0
4882 -5049 5050 0
-5050 5067 0
4885 -5050 5051 0
-5051 5068 0
4886 -5051 5052 0
-5052 5069 0
4889 -5052 5053 0
-5053 5070 0
4890 -5053 5054 0
-5054 5071 0
-4859 -5054 5055 0
-5055 5072 0
-4860 -5055 5056 0
-5056 5073 0
-4863 -5056 5057 0
-5057 5074 0
-4864 -5057 5058 0
-5058 5075 0
-4867 -5058 5059 0
-5059 5076 0
-4868 -5059 5060 0
-5060 5077 0
-4871 -5060 5061 0
-5061 5078 0
-4872 -5061 5062 0
-5062 5079 0
-4875 -5062 0
4877 5063 0
-5063 5080 0
4878 -5063 5064 0
-5064 5081 0
4881 -5064 5065 0
-5065 5082 0
4882 -5065 5066 0
-5066 5083 0
4885 -5066 5067 0
-5067 5084 0
4886 -5067 5068 0
-5068 5085 0
4889 -5068 5069 0
-5069 5086 0
4890 -5069 5070 0
-5070 5087 0
-4859 -5070 5071 0
-5071 5088 0
-4860 -5071 5072 0
-5072 5089 0
-4863 -5072 5073 0
-5073 5090 0
-4864 -5073 5074 0
-5074 5091 0
-4867 -5074 5075 0
-5075 5092 0
-4868 -5075 5076 0
-5076 5093 0
-4871 -5076 5077 0
-5077 5094 0
-4872 -5077 5078 0
-5078 5095 0
-4875 -5078 5079 0
-5079 5096 0
-4876 -5079 0
4878 5080 0
-5080 5097 0
4881 -5080 5081 0
-5081 5098 0
4882 -5081 5082 0
-5082 5099 0
4885 -5082 5083 0
-5083 5100 0
4886 -5083 5084 0
-5084 5101 0
4889 -5084 5085 0
-5085 5102 0
4890 -5085 5086 0
-5086 5103 0
-4859 -5086 5087 0
-5087 5104 0
-4860 -5087 5088 0
-5088 5105 0
-4863 -5088 5089 0
-5089 5106 0
-4864 -5089 5090 0
-5090 5107 0
-4867 -5090 5091 0
-5091 5108 0
-4868 -5091 5092 0
-5092 5109 0
-4871 -5092 5093 0
-5093 5110 0
-4872 -5093 5094 0
-5094 5111 0
-4875 -5094 5095 0
-5095 5112 0
-4876 -5095 5096 0
-5096 5113 0
-4879 -5096 0
4881 5097 0
-5097 5114 0
4882 -5097 5098 0
-5098 5115 0
4885 -5098 5099 0
-5099 5116 0
4886 -5099 5100 0
-5100 5117 0
4889 -5100 5101 0
-5101 5118 0
4890 -5101 5102 0
-5102 5119 0
-4859 -5102 5103 0
-5103 5120 0
-4860 -5103 5104 0
-5104 5121 0
-4863 -5104 5105 0
-5105 5122 0
-4864 -5105 5106 0
-5106 5123 0
-4867 -5106 5107 0
-5107 5124 0
-4868 -5107 5108 0
-5108 5125 0
-4871 -5108 5109 0
-5109 5126 0
-4872 -5109 5110 0
-5110 5127 0
-4875 -5110 5111 0
-5111 5128 0
-4876 -5111 5112 0
-5112 5129 0
-4879 -5112 5113 0
-5113 5130 0
-4880 -5113 0
4882 5114 0
-5114 5131 0
4885 -5114 5115 0
-5115 5132 0
4886 -5115 5116 0
-5116 5133 0
4889 -5116 5117 0
-5117 5134 0
4890 -5117 5118 0
-5118 5135 0
-4859 -5118 5119 0
-5119 5136 0
-4860 -5119 5120 0
-5120 5137 0
-4863 -5120 5121 0
-5121 5138 0
-4864 -5121 5122 0
-5122 5139 0
-4867 -5122 5123 0
-5123 5140 0
-4868 -5123 5124 0
-5124 5141 0
-4871 -5124 5125 0
-5125 5142 0
-4872 -5125 5126 0
-5126 5143 0
-4875 -5126 5127 0
-5127 5144 0
-4876 -5127 5128 0
-5128 5145 0
-4879 -5128 5129 0
-5129 5146 0
-4880 -5129 5130 0
-5130 5147 0
-4883 -5130 0
4885 5131 0
-5131 5148 0
4886 -5131 5132 0
-5132 5149 0
4889 -5132 5133 0
-5133 5150 0
4890 -5133 5134 0
-5134 5151 0
-4859 -5134 5135 0
-5135 5152 0
-4860 -5135 5136 0
-5136 5153 0
-4863 -5136 5137 0
-5137 5154 0
-4864 -5137 5138 0
-5138 5155 0
-4867 -5138 5139 0
-5139 5156 0
-4868 -5139 5140 0
-5140 5157 0
-4871 -5140 5141 0
-5141 5158 0
-4872 -5141 5142 0
-5142 5159 0
-4875 -5142 5143 0
-5143 5160 0
-4876 -5143 5144 0
-5144 5161 0
-4879 -5144 5145 0
-5145 5162 0
-4880 -5145 5146 0
-5146 5163 0
-4883 -5146 5147 0
-5147 5164 0
-4884 -5147 0
4886 5148 0
-5148 5165 0
4889 -5148 5149 0
-5149 5166 0
4890 -5149 5150 0
-5150 5167 0
-4859 -5150 5151 0
-5151 5168 0
-4860 -5151 5152 0
-5152 5169 0
-4863 -5152 5153 0
-5153 5170 0
-4864 -5153 5154 0
-5154 5171 0
-4867 -5154 5155 0
-5155 5172 0
-4868 -5155 5156 0
-5156 5173 0
-4871 -5156 5157 0
-5157 5174 0
-4872 -5157 5158 0
-5158 5175 0
-4875 -5158 5159 0
-5159 5176 0
-4876 -5159 5160 0
-5160 5177 0
-4879 -5160 5161 0
-5161 5178 0
-4880 -5161 5162 0
-5162 5179 0
-4883 -5162 5163 0
-5163 5180 0
-4884 -5163 5164 0
-5164 5181 0
-4887 -5164 0
4889 5165 0
-5165 5182 0
4890 -5165 5166 0
-5166 5183 0
-4859 -5166 5167 0
-5167 5184 0
-4860 -5167 5168 0
-5168 5185 0
-4863 -5168 5169 0
-5169 5186 0
-4864 -5169 5170 0
-5170 5187 0
-4867 -5170 5171 0
-5171 5188 0
-4868 -5171 5172 0
-5172 5189 0
-4871 -5172 5173 0
-5173 5190 0
-4872 -5173 5174 0
-5174 5191 0
-4875 -5174 5175 0
-5175 5192 0
-4876 -5175 5176 0
-5176 5193 0
-4879 -5176 5177 0
-5177 5194 0
-4880 -5177 5178 0
-5178 5195 0
-4883 -5178 5179 0
-5179 5196 0
-4884 -5179 5180 0
-5180 5197 0
-4887 -5180 5181 0
-5181 5198 0
-4888 -5181 0
4890 5182 0
-5182 5199 0
-4859 -5182 5183 0
-5183 5200 0
-4860 -5183 5184 0
-5184 5201 0
-4863 -5184 5185 0
-5185 5202 0
-4864 -5185 5186 0
-5186 5203 0
-4867 -5186 5187 0
-5187 5204 0
-4868 -5187 5188 0
-5188 5205 0
-4871 -5188 5189 0
-5189 5206 0
-4872 -5189 5190 0
-5190 5207 0
-4875 -5190 5191 0
-5191 5208 0
-4876 -5191 5192 0
-5192 5209 0
-4879 -5192 5193 0
-5193 5210 0
-4880 -5193 5194 0
-5194 5211 0
-4883 -5194 5195 0
-5195 5212 0
-4884 -5195 5196 0
-5196 5213 0
-4887 -5196 5197 0
-5197 5214 0
-4888 -5197 5198 0
-5198 5215 0
-4891 -5198 0
-4859 5199 0
-4860 -5199 5200 0
-4863 -5200 5201 0
-4864 -5201 5202 0
-4867 -5202 5203 0
-4868 -5203 5204 0
-4871 -5204 5205 0
-4872 -5205 5206 0
-4875 -5206 5207 0
-4876 -5207 5208 0
-4879 -5208 5209 0
-4880 -5209 5210 0
-4883 -5210 5211 0
-4884 -5211 5212 0
-4887 -5212 5213 0
-4888 -5213 5214 0
-4891 -5214 5215 0
-4892 -5215 0
-4857 5216 0
-5216 5217 0
-4858 -5216 5218 0
-5218 5219 0
-4861 -5218 5220 0
-5220 5221 0
-4862 -5220 5222 0
-5222 5223 0
-4865 -5222 5224 0
-5224 5225 0
-4866 -5224 5226 0
-5226 5227 0
-4869 -5226 5228 0
-5228 5229 0
-4870 -5228 5230 0
-5230 5231 0
-4873 -5230 5232 0
-5232 5233 0
-4874 -5232 5234 0
-5234 5235 0
-4877 -5234 5236 0
-5236 5237 0
-4878 -5236 5238 0
-5238 5239 0
-4881 -5238 5240 0
-5240 5241 0
-4882 -5240 5242 0
-5242 5243 0
-4885 -5242 5244 0
-5244 5245 0
-4886 -5244 5246 0
-5246 5247 0
-4889 -5246 5248 0
-5248 5249 0
-4890 -5248 5250 0
-5250 5251 0
4859 -5250 5252 0
-5252 5253 0
4860 -5252 0
-4858 5217 0
-5217 5254 0
-4861 -5217 5219 0
-5219 5255 0
-4862 -5219 5221 0
-5221 5256 0
-4865 -5221 5223 0
-5223 5257 0
-4866 -5223 5225 0
-5225 5258 0
-4869 -5225 5227 0
-5227 5259 0
-4870 -5227 5229 0
-5229 5260 0
-4873 -5229 5231 0
-5231 5261 0
-4874 -5231 5233 0
-5233 5262 0
-4877 -5233 5235 0
-5235 5263 0
-4878 -5235 5237 0
-5237 5264 0
-4881 -5237 5239 0
-5239 5265 0
-4882 -5239 5241 0
-5241 5266 0
-4885 -5241 5243 0
-5243 5267 0
-4886 -5243 5245 0
-5245 5268 0
-4889 -5245 5247 0
-5247 5269 0
-4890 -5247 5249 0
-5249 5270 0
4859 -5249 5251 0
-5251 5271 0
4860 -5251 5253 0
-5253 5272 0
4863 -5253 0
-4861 5254 0
-5254 5273 0
-4862 -5254 5255 0
-5255 5274 0
-4865 -5255 5256 0
-5256 5275 0
-4866 -5256 5257 0
-5257 5276 0
-4869 -5257 5258 0
-5258 5277 0
-4870 -5258 5259 0
-5259 5278 0
-4873 -5259 5260 0
-5260 5279 0
-4874 -5260 5261 0
-5261 5280 0
-4877 -5261 5262 0
-5262 5281 0
-4878 -5262 5263 0
-5263 5282 0
-4881 -5263 5264 0
-5264 5283 0
-4882 -5264 5265 0
-5265 5284 0
-4885 -5265 5266 0
-5266 5285 0
-4886 -5266 5267 0
-5267 5286 0
-4889 -5267 5268 0
-5268 5287 0
-4890 -5268 5269 0
-5269 5288 0
4859 -5269 5270 0
-5270 5289 0
4860 -5270 5271 0
-5271 5290 0
4863 -5271 5272 0
-5272 5291 0
4864 -5272 0
-4862 5273 0
-5273 5292 0
-4865 -5273 5274 0
-5274 5293 0
-4866 -5274 5275 0
-5275 5294 0
-4869 -5275 5276 0
-5276 5295 0
-4870 -5276 5277 0
-5277 5296 0
-4873 -5277 5278 0
-5278 5297 0
-4874 -5278 5279 0
-5279 5298 0
-4877 -5279 5280 0
-5280 5299 0
-4878 -5280 5281 0
-5281 5300 0
-4881 -5281 5282 0
-5282 5301 0
-4882 -5282 5283 0
-5283 5302 0
-4885 -5283 5284 0
-5284 5303 0
-4886 -5284 5285 0
-5285 5304 0
-4889 -5285 5286 0
-5286 5305 0
-4890 -5286 5287 0
-5287 5306 0
4859 -5287 5288 0
-5288 5307 0
4860 -5288 5289 0
-5289 5308 0
4863 -5289 5290 0
-5290 5309 0
4864 -5290 5291 0
-5291 5310 0
4867 -5291 0
-4865 5292 0
-5292 5311 0
-4866 -5292 5293 0
-5293 5312 0
-4869 -5293 5294 0
-5294 5313 0
-4870 -5294 5295 0
-5295 5314 0
-4873 -5295 5296 0
-5296 5315 0
-4874 -5296 5297 0
-5297 5316 0
-4877 -5297 5298 0
-5298 5317 0
-4878 -5298 5299 0
-5299 5318 0
-4881 -5299 5300 0
-5300 5319 0
-4882 -5300 5301 0
-5301 5320 0
-4885 -5301 5302 0
-5302 5321 0
-4886 -5302 5303 0
-5303 5322 0
-4889 -5303 5304 0
-5304 5323 0
-4890 -5304 5305 0
-5305 5324 0
4859 -5305 5306 0
-5306 5325 0
4860 -5306 5307 0
-5307 5326 0
4863 -5307 5308 0
-5308 5327 0
4864 -5308 5309 0
-5309 5328 0
4867 -5309 5310 0
-5310 5329 0
4868 -5310 0
-4866 5311 0
-5311 5330 0
-4869 -5311 5312 0
-5312 5331 0
-4870 -5312 5313 0
-5313 5332 0
-4873 -5313 5314 0
-5314 5333 0
-4874 -5314 5315 0
-5315 5334 0
-4877 -5315 5316 0
-5316 5335 0
-4878 -5316 5317 0
-5317 5336 0
-4881 -5317 5318 0
-5318 5337 0
-4882 -5318 5319 0
-5319 5338 0
-4885 -5319 5320 0
-5320 5339 0
-4886 -5320 5321 0
-5321 5340 0
-4889 -5321 5322 0
-5322 5341 0
-4890 -5322 5323 0
-5323 5342 0
4859 -5323 5324 0
-5324 5343 0
4860 -5324 5325 0
-5325 5344 0
4863 -5325 5326 0
-5326 5345 0
4864 -5326 5327 0
-5327 5346 0
4867 -5327 5328 0
-5328 5347 0
4868 -5328 5329 0
-5329 5348 0
4871 -5329 0
-4869 5330 0
-5330 5349 0
-4870 -5330 5331 0
-5331 5350 0
-4873 -5331 5332 0
-5332 5351 0
-4874 -5332 5333 0
-5333 5352 0
-4877 -5333 5334 0
-5334 5353 0
-4878 -5334 5335 0
-5335 5354 0
-4881 -5335 5336 0
-5336 5355 0
-4882 -5336 5337 0
-5337 5356 0
-4885 -5337 5338 0
-5338 5357 0
-4886 -5338 5339 0
-5339 5358 0
-4889 -5339 5340 0
-5340 5359 0
-4890 -5340 5341 0
-5341 5360 0
4859 -5341 5342 0
-5342 5361 0
4860 -5342 5343 0
-5343 5362 0
4863 -5343 5344 0
-5344 5363 0
4864 -5344 5345 0
-5345 5364 0
4867 -5345 5346 0
-5346 5365 0
4868 -5346 5347 0
-5347 5366 0
4871 -5347 5348 0
-5348 5367 0
4872 -5348 0
-4870 5349 0
-5349 5368 0
-4873 -5349 5350 0
-5350 5369 0
-4874 -5350 5351 0
-5351 5370 0
-4877 -5351 5352 0
-5352 5371 0
-4878 -5352 5353 0
-5353 5372 0
-4881 -5353 5354 0
-5354 5373 0
-4882 -5354 5355 0
-5355 5374 0
-4885 -5355 5356 0
-5356 5375 0
-4886 -5356 5357 0
-5357 5376 0
-4889 -5357 5358 0
-5358 5377 0
-4890 -5358 5359 0
-5359 5378 0
4859 -5359 5360 0
-5360 5379 0
4860 -5360 5361 0
-5361 5380 0
4863 -5361 5362 0
-5362 5381 0
4864 -5362 5363 0
-5363 5382 0
4867 -5363 5364 0
-5364 5383 0
4868 -5364 5365 0
-5365 5384 0
4871 -5365 5366 0
-5366 5385 0
4872 -5366 5367 0
-5367 5386 0
4875 -5367 0
-4873 5368 0
-5368 5387 0
-4874 -5368 5369 0
-5369 5388 0
-4877 -5369 5370 0
-5370 5389 0
-4878 -5370 5371 0
-5371 5390 0
-4881 -5371 5372 0
-5372 5391 0
-4882 -5372 5373 0
-5373 5392 0
-4885 -5373 5374 0
-5374 5393 0
-4886 -5374 5375 0
-5375 5394 0
-4889 -5375 5376 0
-5376 5395 0
-4890 -5376 5377 0
-5377 5396 0
4859 -5377 5378 0
-5378 5397 0
4860 -5378 5379 0
-5379 5398 0
4863 -5379 5380 0
-5380 5399 0
4864 -5380 5381 0
-5381 5400 0
4867 -5381 5382 0
-5382 5401 0
4868 -5382 5383 0
-5383 5402 0
4871 -5383 5384 0
-5384 5403 0
4872 -5384 5385 0
-5385 5404 0
4875 -5385 5386 0
-5386 5405 0
4876 -5386 0
-4874 5387 0
-5387 5406 0
-4877 -5387 5388 0
-5388 5407 0
-4878 -5388 5389 0
-5389 5408 0
-4881 -5389 5390 0
-5390 5409 0
-4882 -5390 5391 0
-5391 5410 0
-4885 -5391 5392 0
-5392 5411 0
-4886 -5392 5393 0
-5393 5412 0
-4889 -5393 5394 0
-5394 5413 0
-4890 -5394 5395 0
-5395 5414 0
4859 -5395 5396 0
-5396 5415 0
4860 -5396 5397 0
-5397 5416 0
4863 -5397 5398 0
-5398 5417 0
4864 -5398 5399 0
-5399 5418 0
4867 -5399 5400 0
-5400 5419 0
4868 -5400 5401 0
-5401 5420 0
4871 -5401 5402 0
-5402 5421 0
4872 -5402 5403 0
-5403 5422 0
4875 -5403 5404 0
-5404 5423 0
4876 -5404 5405 0
-5405 5424 0
4879 -5405 0
-4877 5406 0
-5406 5425 0
-4878 -5406 5407 0
-5407 5426 0
-4881 -5407 5408 0
-5408 5427 0
-4882 -5408 5409 0
-5409 5428 0
-4885 -5409 5410 0
-5410 5429 0
-4886 -5410 5411 0
-5411 5430 0
-4889 -5411 5412 0
-5412 5431 0
-4890 -5412 5413 0
-5413 5432 0
4859 -5413 5414 0
-5414 5433 0
4860 -5414 5415 0
-5415 5434 0
4863 -5415 5416 0
-5416 5435 0
4864 -5416 5417 0
-5417 5436 0
4867 -5417 5418 0
-5418 5437 0
4868 -5418 5419 0
-5419 5438 0
4871 -5419 5420 0
-5420 5439 0
4872 -5420 5421 0
-5421 5440 0
4875 -5421 5422 0
-5422 5441 0
4876 -5422 5423 0
-5423 5442 0
4879 -5423 5424 0
-5424 5443 0
4880 -5424 0
-4878 5425 0
-5425 5444 0
-4881 -5425 5426 0
-5426 5445 0
-4882 -5426 5427 0
-5427 5446 0
-4885 -5427 5428 0
-5428 5447 0
-4886 -5428 5429 0
-5429 5448 0
-4889 -5429 5430 0
-5430 5449 0
-4890 -5430 5431 0
-5431 5450 0
4859 -5431 5432 0
-5432 5451 0
4860 -5432 5433 0
-5433 5452 0
4863 -5433 5434 0
-5434 5453 0
4864 -5434 5435 0
-5435 5454 0
4867 -5435 5436 0
-5436 5455 0
4868 -5436 5437 0
-5437 5456 0
4871 -5437 5438 0
-5438 5457 0
4872 -5438 5439 0
-5439 5458 0
4875 -5439 5440 0
-5440 5459 0
4876 -5440 5441 0
-5441 5460 0
4879 -5441 5442 0
-5442 5461 0
4880 -5442 5443 0
-5443 5462 0
4883 -5443 0
-4881 5444 0
-5444 5463 0
-4882 -5444 5445 0
-5445 5464 0
-4885 -5445 5446 0
-5446 5465 0
-4886 -5446 5447 0
-5447 5466 0
-4889 -5447 5448 0
-5448 5467 0
-4890 -5448 5449 0
-5449 5468 0
4859 -5449 5450 0
-5450 5469 0
4860 -5450 5451 0
-5451 5470 0
4863 -5451 5452 0
-5452 5471 0
4864 -5452 5453 0
-5453 5472 0
4867 -5453 5454 0
-5454 5473 0
4868 -5454 5455 0
-5455 5474 0
4871 -5455 5456 0
-5456 5475 0
4872 -5456 5457 0
-5457 5476 0
4875 -5457 5458 0
-5458 5477 0
4876 -5458 5459 0
-5459 5478 0
4879 -5459 5460 0
-5460 5479 0
4880 -5460 5461 0
-5461 5480 0
4883 -5461 5462 0
-5462 5481 0
4884 -5462 0
-4882 5463 0
-5463 5482 0
-4885 -5463 5464 0
-5464 5483 0
-4886 -5464 5465 0
-5465 5484 0
-4889 -5465 5466 0
-5466 5485 0
-4890 -5466 5467 0
-5467 5486 0
4859 -5467 5468 0
-5468 5487 0
4860 -5468 5469 0
-5469 5488 0
4863 -5469 5470 0
-5470 5489 0
4864 -5470 5471 0
-5471 5490 0
4867 -5471 5472 0
-5472 5491 0
4868 -5472 5473 0
-5473 5492 0
4871 -5473 5474 0
-5474 5493 0
4872 -5474 5475 0
-5475 5494 0
4875 -5475 5476 0
-5476 5495 0
4876 -5476 5477 0
-5477 5496 0
4879 -5477 5478 0
-5478 5497 0
4880 -5478 5479 0
-5479 5498 0
4883 -5479 5480 0
-5480 5499 0
4884 -5480 5481 0
-5481 5500 0
4887 -5481 0
-4885 5482 0
-5482 5501 0
-4886 -5482 5483 0
-5483 5502 0
-4889 -5483 5484 0
-5484 5503 0
-4890 -5484 5485 0
-5485 5504 0
4859 -5485 5486 0
-5486 5505 0
4860 -5486 5487 0
-5487 5506 0
4863 -5487 5488 0
-5488 5507 0
4864 -5488 5489 0
-5489 5508 0
4867 -5489 5490 0
-5490 5509 0
4868 -5490 5491 0
-5491 5510 0
4871 -5491 5492 0
-5492 5511 0
4872 -5492 5493 0
-5493 5512 0
4875 -5493 5494 0
-5494 5513 0
4876 -5494 5495 0
-5495 5514 0
4879 -5495 5496 0
-5496 5515 0
4880 -5496 5497 0
-5497 5516 0
4883 -5497 5498 0
-5498 5517 0
4884 -5498 5499 0
-5499 5518 0
4887 -5499 5500 0
-5500 5519 0
4888 -5500 0
-4886 5501 0
-5501 5520 0
-4889 -5501 5502 0
-5502 5521 0
-4890 -5502 5503 0
-5503 5522 0
4859 -5503 5504 0
-5504 5523 0
4860 -5504 5505 0
-5505 5524 0
4863 -5505 5506 0
-5506 5525 0
4864 -5506 5507 0
-5507 5526 0
4867 -5507 5508 0
-5508 5527 0
4868 -5508 5509 0
-5509 5528 0
4871 -5509 5510 0
-5510 5529 0
4872 -5510 5511 0
-5511 5530 0
4875 -5511 5512 0
-5512 5531 0
4876 -5512 5513 0
-5513 5532 0
4879 -5513 5514 0
-5514 5533 0
4880 -5514 5515 0
-5515 5534 0
4883 -5515 5516 0
-5516 5535 0
4884 -5516 5517 0
-5517 5536 0
4887 -5517 5518 0
-5518 5537 0
4888 -5518 5519 0
-5519 5538 0
4891 -5519 0
-4889 5520 0
-4890 -5520 5521 0
4859 -5521 5522 0
4860 -5522 5523 0
4863 -5523 5524 0
4864 -5524 5525 0
4867 -5525 5526 0
4868 -5526 5527 0
4871 -5527 5528 0
4872 -5528 5529 0
4875 -5529 5530 0
4876 -5530 5531 0
4879 -5531 5532 0
4880 -5532 5533 0
4883 -5533 5534 0
4884 -5534 5535 0
4887 -5535 5536 0
4888 -5536 5537 0
4891 -5537 5538 0
4892 -5538 0
