c instance SDS(5,4,-1,[5])
c cardinality encoding totalizer
c p_g/n_g are exclusive; exact counts fix support and nonnegative augmentation sign
c negative coefficient at identity is fixed by translation symmetry
c AND auxiliaries are encoded by three clauses each (full equivalence)
c each nonidentity equation is sum(same)+sum(not cross)=lambda+2v
p cnf 842 2570
-1 -6 0
-2 -7 0
-3 -8 0
-4 -9 0
-5 -10 0
-19 11 0
-20 12 0
-16 11 0
-17 12 0
-18 13 0
-16 -19 12 0
-16 -20 13 0
-17 -19 13 0
-17 -20 14 0
-18 -19 14 0
-18 -20 15 0
5 19 0
4 19 0
4 5 20 0
3 16 0
-21 16 0
-22 17 0
-21 3 17 0
-22 3 18 0
2 21 0
1 21 0
1 2 22 0
-14 0
-31 23 0
-32 24 0
-28 23 0
-29 24 0
-30 25 0
-28 -31 24 0
-28 -32 25 0
-29 -31 25 0
-29 -32 26 0
-30 -31 26 0
-30 -32 27 0
-5 31 0
-4 31 0
-4 -5 32 0
-3 28 0
-33 28 0
-34 29 0
-33 -3 29 0
-34 -3 30 0
-2 33 0
-1 33 0
-1 -2 34 0
-25 0
-43 35 0
-44 36 0
-40 35 0
-41 36 0
-42 37 0
-40 -43 36 0
-40 -44 37 0
-41 -43 37 0
-41 -44 38 0
-42 -43 38 0
-42 -44 39 0
10 43 0
9 43 0
9 10 44 0
8 40 0
-45 40 0
-46 41 0
-45 8 41 0
-46 8 42 0
7 45 0
6 45 0
6 7 46 0
-38 0
-55 47 0
-56 48 0
-52 47 0
-53 48 0
-54 49 0
-52 -55 48 0
-52 -56 49 0
-53 -55 49 0
-53 -56 50 0
-54 -55 50 0
-54 -56 51 0
-10 55 0
-9 55 0
-9 -10 56 0
-8 52 0
-57 52 0
-58 53 0
-57 -8 53 0
-58 -8 54 0
-7 57 0
-6 57 0
-6 -7 58 0
-49 0
6 0
-59 1 0
-59 5 0
59 -1 -5 0
-60 6 0
-60 10 0
60 -6 -10 0
-61 1 0
-61 10 0
61 -1 -10 0
-62 6 0
-62 5 0
62 -6 -5 0
-63 2 0
-63 1 0
63 -2 -1 0
-64 7 0
-64 6 0
64 -7 -6 0
-65 2 0
-65 6 0
65 -2 -6 0
-66 7 0
-66 1 0
66 -7 -1 0
-67 3 0
-67 2 0
67 -3 -2 0
-68 8 0
-68 7 0
68 -8 -7 0
-69 3 0
-69 7 0
69 -3 -7 0
-70 8 0
-70 2 0
70 -8 -2 0
-71 4 0
-71 3 0
71 -4 -3 0
-72 9 0
-72 8 0
72 -9 -8 0
-73 4 0
-73 8 0
73 -4 -8 0
-74 9 0
-74 3 0
74 -9 -3 0
-75 5 0
-75 4 0
75 -5 -4 0
-76 10 0
-76 9 0
76 -10 -9 0
-77 5 0
-77 9 0
77 -5 -9 0
-78 10 0
-78 4 0
78 -10 -4 0
-109 79 0
-110 80 0
-111 81 0
-112 82 0
-113 83 0
-114 84 0
-115 85 0
-116 86 0
-117 87 0
-118 88 0
-99 79 0
-100 80 0
-101 81 0
-102 82 0
-103 83 0
-104 84 0
-105 85 0
-106 86 0
-107 87 0
-108 88 0
-99 -109 80 0
-99 -110 81 0
-99 -111 82 0
-99 -112 83 0
-99 -113 84 0
-99 -114 85 0
-99 -115 86 0
-99 -116 87 0
-99 -117 88 0
-99 -118 89 0
-100 -109 81 0
-100 -110 82 0
-100 -111 83 0
-100 -112 84 0
-100 -113 85 0
-100 -114 86 0
-100 -115 87 0
-100 -116 88 0
-100 -117 89 0
-100 -118 90 0
-101 -109 82 0
-101 -110 83 0
-101 -111 84 0
-101 -112 85 0
-101 -113 86 0
-101 -114 87 0
-101 -115 88 0
-101 -116 89 0
-101 -117 90 0
-101 -118 91 0
-102 -109 83 0
-102 -110 84 0
-102 -111 85 0
-102 -112 86 0
-102 -113 87 0
-102 -114 88 0
-102 -115 89 0
-102 -116 90 0
-102 -117 91 0
-102 -118 92 0
-103 -109 84 0
-103 -110 85 0
-103 -111 86 0
-103 -112 87 0
-103 -113 88 0
-103 -114 89 0
-103 -115 90 0
-103 -116 91 0
-103 -117 92 0
-103 -118 93 0
-104 -109 85 0
-104 -110 86 0
-104 -111 87 0
-104 -112 88 0
-104 -113 89 0
-104 -114 90 0
-104 -115 91 0
-104 -116 92 0
-104 -117 93 0
-104 -118 94 0
-105 -109 86 0
-105 -110 87 0
-105 -111 88 0
-105 -112 89 0
-105 -113 90 0
-105 -114 91 0
-105 -115 92 0
-105 -116 93 0
-105 -117 94 0
-105 -118 95 0
-106 -109 87 0
-106 -110 88 0
-106 -111 89 0
-106 -112 90 0
-106 -113 91 0
-106 -114 92 0
-106 -115 93 0
-106 -116 94 0
-106 -117 95 0
-106 -118 96 0
-107 -109 88 0
-107 -110 89 0
-107 -111 90 0
-107 -112 91 0
-107 -113 92 0
-107 -114 93 0
-107 -115 94 0
-107 -116 95 0
-107 -117 96 0
-107 -118 97 0
-108 -109 89 0
-108 -110 90 0
-108 -111 91 0
-108 -112 92 0
-108 -113 93 0
-108 -114 94 0
-108 -115 95 0
-108 -116 96 0
-108 -117 97 0
-108 -118 98 0
-124 109 0
-125 110 0
-126 111 0
-127 112 0
-128 113 0
-119 109 0
-120 110 0
-121 111 0
-122 112 0
-123 113 0
-119 -124 110 0
-119 -125 111 0
-119 -126 112 0
-119 -127 113 0
-119 -128 114 0
-120 -124 111 0
-120 -125 112 0
-120 -126 113 0
-120 -127 114 0
-120 -128 115 0
-121 -124 112 0
-121 -125 113 0
-121 -126 114 0
-121 -127 115 0
-121 -128 116 0
-122 -124 113 0
-122 -125 114 0
-122 -126 115 0
-122 -127 116 0
-122 -128 117 0
-123 -124 114 0
-123 -125 115 0
-123 -126 116 0
-123 -127 117 0
-123 -128 118 0
-132 124 0
-133 125 0
-129 124 0
-130 125 0
-131 126 0
-129 -132 125 0
-129 -133 126 0
-130 -132 126 0
-130 -133 127 0
-131 -132 127 0
-131 -133 128 0
-78 132 0
-77 132 0
-77 -78 133 0
-74 129 0
-134 129 0
-135 130 0
-134 -74 130 0
-135 -74 131 0
-73 134 0
-70 134 0
-70 -73 135 0
-139 119 0
-140 120 0
-136 119 0
-137 120 0
-138 121 0
-136 -139 120 0
-136 -140 121 0
-137 -139 121 0
-137 -140 122 0
-138 -139 122 0
-138 -140 123 0
-69 139 0
-66 139 0
-66 -69 140 0
-65 136 0
-141 136 0
-142 137 0
-141 -65 137 0
-142 -65 138 0
-62 141 0
-61 141 0
-61 -62 142 0
-148 99 0
-149 100 0
-150 101 0
-151 102 0
-152 103 0
-143 99 0
-144 100 0
-145 101 0
-146 102 0
-147 103 0
-143 -148 100 0
-143 -149 101 0
-143 -150 102 0
-143 -151 103 0
-143 -152 104 0
-144 -148 101 0
-144 -149 102 0
-144 -150 103 0
-144 -151 104 0
-144 -152 105 0
-145 -148 102 0
-145 -149 103 0
-145 -150 104 0
-145 -151 105 0
-145 -152 106 0
-146 -148 103 0
-146 -149 104 0
-146 -150 105 0
-146 -151 106 0
-146 -152 107 0
-147 -148 104 0
-147 -149 105 0
-147 -150 106 0
-147 -151 107 0
-147 -152 108 0
-156 148 0
-157 149 0
-153 148 0
-154 149 0
-155 150 0
-153 -156 149 0
-153 -157 150 0
-154 -156 150 0
-154 -157 151 0
-155 -156 151 0
-155 -157 152 0
76 156 0
75 156 0
75 76 157 0
72 153 0
-158 153 0
-159 154 0
-158 72 154 0
-159 72 155 0
71 158 0
68 158 0
68 71 159 0
-163 143 0
-164 144 0
-160 143 0
-161 144 0
-162 145 0
-160 -163 144 0
-160 -164 145 0
-161 -163 145 0
-161 -164 146 0
-162 -163 146 0
-162 -164 147 0
67 163 0
64 163 0
64 67 164 0
63 160 0
-165 160 0
-166 161 0
-165 63 161 0
-166 63 162 0
60 165 0
59 165 0
59 60 166 0
-90 0
-197 167 0
-198 168 0
-199 169 0
-200 170 0
-201 171 0
-202 172 0
-203 173 0
-204 174 0
-205 175 0
-206 176 0
-187 167 0
-188 168 0
-189 169 0
-190 170 0
-191 171 0
-192 172 0
-193 173 0
-194 174 0
-195 175 0
-196 176 0
-187 -197 168 0
-187 -198 169 0
-187 -199 170 0
-187 -200 171 0
-187 -201 172 0
-187 -202 173 0
-187 -203 174 0
-187 -204 175 0
-187 -205 176 0
-187 -206 177 0
-188 -197 169 0
-188 -198 170 0
-188 -199 171 0
-188 -200 172 0
-188 -201 173 0
-188 -202 174 0
-188 -203 175 0
-188 -204 176 0
-188 -205 177 0
-188 -206 178 0
-189 -197 170 0
-189 -198 171 0
-189 -199 172 0
-189 -200 173 0
-189 -201 174 0
-189 -202 175 0
-189 -203 176 0
-189 -204 177 0
-189 -205 178 0
-189 -206 179 0
-190 -197 171 0
-190 -198 172 0
-190 -199 173 0
-190 -200 174 0
-190 -201 175 0
-190 -202 176 0
-190 -203 177 0
-190 -204 178 0
-190 -205 179 0
-190 -206 180 0
-191 -197 172 0
-191 -198 173 0
-191 -199 174 0
-191 -200 175 0
-191 -201 176 0
-191 -202 177 0
-191 -203 178 0
-191 -204 179 0
-191 -205 180 0
-191 -206 181 0
-192 -197 173 0
-192 -198 174 0
-192 -199 175 0
-192 -200 176 0
-192 -201 177 0
-192 -202 178 0
-192 -203 179 0
-192 -204 180 0
-192 -205 181 0
-192 -206 182 0
-193 -197 174 0
-193 -198 175 0
-193 -199 176 0
-193 -200 177 0
-193 -201 178 0
-193 -202 179 0
-193 -203 180 0
-193 -204 181 0
-193 -205 182 0
-193 -206 183 0
-194 -197 175 0
-194 -198 176 0
-194 -199 177 0
-194 -200 178 0
-194 -201 179 0
-194 -202 180 0
-194 -203 181 0
-194 -204 182 0
-194 -205 183 0
-194 -206 184 0
-195 -197 176 0
-195 -198 177 0
-195 -199 178 0
-195 -200 179 0
-195 -201 180 0
-195 -202 181 0
-195 -203 182 0
-195 -204 183 0
-195 -205 184 0
-195 -206 185 0
-196 -197 177 0
-196 -198 178 0
-196 -199 179 0
-196 -200 180 0
-196 -201 181 0
-196 -202 182 0
-196 -203 183 0
-196 -204 184 0
-196 -205 185 0
-196 -206 186 0
-212 197 0
-213 198 0
-214 199 0
-215 200 0
-216 201 0
-207 197 0
-208 198 0
-209 199 0
-210 200 0
-211 201 0
-207 -212 198 0
-207 -213 199 0
-207 -214 200 0
-207 -215 201 0
-207 -216 202 0
-208 -212 199 0
-208 -213 200 0
-208 -214 201 0
-208 -215 202 0
-208 -216 203 0
-209 -212 200 0
-209 -213 201 0
-209 -214 202 0
-209 -215 203 0
-209 -216 204 0
-210 -212 201 0
-210 -213 202 0
-210 -214 203 0
-210 -215 204 0
-210 -216 205 0
-211 -212 202 0
-211 -213 203 0
-211 -214 204 0
-211 -215 205 0
-211 -216 206 0
-220 212 0
-221 213 0
-217 212 0
-218 213 0
-219 214 0
-217 -220 213 0
-217 -221 214 0
-218 -220 214 0
-218 -221 215 0
-219 -220 215 0
-219 -221 216 0
78 220 0
77 220 0
77 78 221 0
74 217 0
-222 217 0
-223 218 0
-222 74 218 0
-223 74 219 0
73 222 0
70 222 0
70 73 223 0
-227 207 0
-228 208 0
-224 207 0
-225 208 0
-226 209 0
-224 -227 208 0
-224 -228 209 0
-225 -227 209 0
-225 -228 210 0
-226 -227 210 0
-226 -228 211 0
69 227 0
66 227 0
66 69 228 0
65 224 0
-229 224 0
-230 225 0
-229 65 225 0
-230 65 226 0
62 229 0
61 229 0
61 62 230 0
-236 187 0
-237 188 0
-238 189 0
-239 190 0
-240 191 0
-231 187 0
-232 188 0
-233 189 0
-234 190 0
-235 191 0
-231 -236 188 0
-231 -237 189 0
-231 -238 190 0
-231 -239 191 0
-231 -240 192 0
-232 -236 189 0
-232 -237 190 0
-232 -238 191 0
-232 -239 192 0
-232 -240 193 0
-233 -236 190 0
-233 -237 191 0
-233 -238 192 0
-233 -239 193 0
-233 -240 194 0
-234 -236 191 0
-234 -237 192 0
-234 -238 193 0
-234 -239 194 0
-234 -240 195 0
-235 -236 192 0
-235 -237 193 0
-235 -238 194 0
-235 -239 195 0
-235 -240 196 0
-244 236 0
-245 237 0
-241 236 0
-242 237 0
-243 238 0
-241 -244 237 0
-241 -245 238 0
-242 -244 238 0
-242 -245 239 0
-243 -244 239 0
-243 -245 240 0
-76 244 0
-75 244 0
-75 -76 245 0
-72 241 0
-246 241 0
-247 242 0
-246 -72 242 0
-247 -72 243 0
-71 246 0
-68 246 0
-68 -71 247 0
-251 231 0
-252 232 0
-248 231 0
-249 232 0
-250 233 0
-248 -251 232 0
-248 -252 233 0
-249 -251 233 0
-249 -252 234 0
-250 -251 234 0
-250 -252 235 0
-67 251 0
-64 251 0
-64 -67 252 0
-63 248 0
-253 248 0
-254 249 0
-253 -63 249 0
-254 -63 250 0
-60 253 0
-59 253 0
-59 -60 254 0
-176 0
-255 1 0
-255 4 0
255 -1 -4 0
-256 6 0
-256 9 0
256 -6 -9 0
-257 1 0
-257 9 0
257 -1 -9 0
-258 6 0
-258 4 0
258 -6 -4 0
-259 2 0
-259 5 0
259 -2 -5 0
-260 7 0
-260 10 0
260 -7 -10 0
-261 2 0
-261 10 0
261 -2 -10 0
-262 7 0
-262 5 0
262 -7 -5 0
-263 3 0
-263 1 0
263 -3 -1 0
-264 8 0
-264 6 0
264 -8 -6 0
-265 3 0
-265 6 0
265 -3 -6 0
-266 8 0
-266 1 0
266 -8 -1 0
-267 4 0
-267 2 0
267 -4 -2 0
-268 9 0
-268 7 0
268 -9 -7 0
-269 4 0
-269 7 0
269 -4 -7 0
-270 9 0
-270 2 0
270 -9 -2 0
-271 5 0
-271 3 0
271 -5 -3 0
-272 10 0
-272 8 0
272 -10 -8 0
-273 5 0
-273 8 0
273 -5 -8 0
-274 10 0
-274 3 0
274 -10 -3 0
-305 275 0
-306 276 0
-307 277 0
-308 278 0
-309 279 0
-310 280 0
-311 281 0
-312 282 0
-313 283 0
-314 284 0
-295 275 0
-296 276 0
-297 277 0
-298 278 0
-299 279 0
-300 280 0
-301 281 0
-302 282 0
-303 283 0
-304 284 0
-295 -305 276 0
-295 -306 277 0
-295 -307 278 0
-295 -308 279 0
-295 -309 280 0
-295 -310 281 0
-295 -311 282 0
-295 -312 283 0
-295 -313 284 0
-295 -314 285 0
-296 -305 277 0
-296 -306 278 0
-296 -307 279 0
-296 -308 280 0
-296 -309 281 0
-296 -310 282 0
-296 -311 283 0
-296 -312 284 0
-296 -313 285 0
-296 -314 286 0
-297 -305 278 0
-297 -306 279 0
-297 -307 280 0
-297 -308 281 0
-297 -309 282 0
-297 -310 283 0
-297 -311 284 0
-297 -312 285 0
-297 -313 286 0
-297 -314 287 0
-298 -305 279 0
-298 -306 280 0
-298 -307 281 0
-298 -308 282 0
-298 -309 283 0
-298 -310 284 0
-298 -311 285 0
-298 -312 286 0
-298 -313 287 0
-298 -314 288 0
-299 -305 280 0
-299 -306 281 0
-299 -307 282 0
-299 -308 283 0
-299 -309 284 0
-299 -310 285 0
-299 -311 286 0
-299 -312 287 0
-299 -313 288 0
-299 -314 289 0
-300 -305 281 0
-300 -306 282 0
-300 -307 283 0
-300 -308 284 0
-300 -309 285 0
-300 -310 286 0
-300 -311 287 0
-300 -312 288 0
-300 -313 289 0
-300 -314 290 0
-301 -305 282 0
-301 -306 283 0
-301 -307 284 0
-301 -308 285 0
-301 -309 286 0
-301 -310 287 0
-301 -311 288 0
-301 -312 289 0
-301 -313 290 0
-301 -314 291 0
-302 -305 283 0
-302 -306 284 0
-302 -307 285 0
-302 -308 286 0
-302 -309 287 0
-302 -310 288 0
-302 -311 289 0
-302 -312 290 0
-302 -313 291 0
-302 -314 292 0
-303 -305 284 0
-303 -306 285 0
-303 -307 286 0
-303 -308 287 0
-303 -309 288 0
-303 -310 289 0
-303 -311 290 0
-303 -312 291 0
-303 -313 292 0
-303 -314 293 0
-304 -305 285 0
-304 -306 286 0
-304 -307 287 0
-304 -308 288 0
-304 -309 289 0
-304 -310 290 0
-304 -311 291 0
-304 -312 292 0
-304 -313 293 0
-304 -314 294 0
-320 305 0
-321 306 0
-322 307 0
-323 308 0
-324 309 0
-315 305 0
-316 306 0
-317 307 0
-318 308 0
-319 309 0
-315 -320 306 0
-315 -321 307 0
-315 -322 308 0
-315 -323 309 0
-315 -324 310 0
-316 -320 307 0
-316 -321 308 0
-316 -322 309 0
-316 -323 310 0
-316 -324 311 0
-317 -320 308 0
-317 -321 309 0
-317 -322 310 0
-317 -323 311 0
-317 -324 312 0
-318 -320 309 0
-318 -321 310 0
-318 -322 311 0
-318 -323 312 0
-318 -324 313 0
-319 -320 310 0
-319 -321 311 0
-319 -322 312 0
-319 -323 313 0
-319 -324 314 0
-328 320 0
-329 321 0
-325 320 0
-326 321 0
-327 322 0
-325 -328 321 0
-325 -329 322 0
-326 -328 322 0
-326 -329 323 0
-327 -328 323 0
-327 -329 324 0
-274 328 0
-273 328 0
-273 -274 329 0
-270 325 0
-330 325 0
-331 326 0
-330 -270 326 0
-331 -270 327 0
-269 330 0
-266 330 0
-266 -269 331 0
-335 315 0
-336 316 0
-332 315 0
-333 316 0
-334 317 0
-332 -335 316 0
-332 -336 317 0
-333 -335 317 0
-333 -336 318 0
-334 -335 318 0
-334 -336 319 0
-265 335 0
-262 335 0
-262 -265 336 0
-261 332 0
-337 332 0
-338 333 0
-337 -261 333 0
-338 -261 334 0
-258 337 0
-257 337 0
-257 -258 338 0
-344 295 0
-345 296 0
-346 297 0
-347 298 0
-348 299 0
-339 295 0
-340 296 0
-341 297 0
-342 298 0
-343 299 0
-339 -344 296 0
-339 -345 297 0
-339 -346 298 0
-339 -347 299 0
-339 -348 300 0
-340 -344 297 0
-340 -345 298 0
-340 -346 299 0
-340 -347 300 0
-340 -348 301 0
-341 -344 298 0
-341 -345 299 0
-341 -346 300 0
-341 -347 301 0
-341 -348 302 0
-342 -344 299 0
-342 -345 300 0
-342 -346 301 0
-342 -347 302 0
-342 -348 303 0
-343 -344 300 0
-343 -345 301 0
-343 -346 302 0
-343 -347 303 0
-343 -348 304 0
-352 344 0
-353 345 0
-349 344 0
-350 345 0
-351 346 0
-349 -352 345 0
-349 -353 346 0
-350 -352 346 0
-350 -353 347 0
-351 -352 347 0
-351 -353 348 0
272 352 0
271 352 0
271 272 353 0
268 349 0
-354 349 0
-355 350 0
-354 268 350 0
-355 268 351 0
267 354 0
264 354 0
264 267 355 0
-359 339 0
-360 340 0
-356 339 0
-357 340 0
-358 341 0
-356 -359 340 0
-356 -360 341 0
-357 -359 341 0
-357 -360 342 0
-358 -359 342 0
-358 -360 343 0
263 359 0
260 359 0
260 263 360 0
259 356 0
-361 356 0
-362 357 0
-361 259 357 0
-362 259 358 0
256 361 0
255 361 0
255 256 362 0
-286 0
-393 363 0
-394 364 0
-395 365 0
-396 366 0
-397 367 0
-398 368 0
-399 369 0
-400 370 0
-401 371 0
-402 372 0
-383 363 0
-384 364 0
-385 365 0
-386 366 0
-387 367 0
-388 368 0
-389 369 0
-390 370 0
-391 371 0
-392 372 0
-383 -393 364 0
-383 -394 365 0
-383 -395 366 0
-383 -396 367 0
-383 -397 368 0
-383 -398 369 0
-383 -399 370 0
-383 -400 371 0
-383 -401 372 0
-383 -402 373 0
-384 -393 365 0
-384 -394 366 0
-384 -395 367 0
-384 -396 368 0
-384 -397 369 0
-384 -398 370 0
-384 -399 371 0
-384 -400 372 0
-384 -401 373 0
-384 -402 374 0
-385 -393 366 0
-385 -394 367 0
-385 -395 368 0
-385 -396 369 0
-385 -397 370 0
-385 -398 371 0
-385 -399 372 0
-385 -400 373 0
-385 -401 374 0
-385 -402 375 0
-386 -393 367 0
-386 -394 368 0
-386 -395 369 0
-386 -396 370 0
-386 -397 371 0
-386 -398 372 0
-386 -399 373 0
-386 -400 374 0
-386 -401 375 0
-386 -402 376 0
-387 -393 368 0
-387 -394 369 0
-387 -395 370 0
-387 -396 371 0
-387 -397 372 0
-387 -398 373 0
-387 -399 374 0
-387 -400 375 0
-387 -401 376 0
-387 -402 377 0
-388 -393 369 0
-388 -394 370 0
-388 -395 371 0
-388 -396 372 0
-388 -397 373 0
-388 -398 374 0
-388 -399 375 0
-388 -400 376 0
-388 -401 377 0
-388 -402 378 0
-389 -393 370 0
-389 -394 371 0
-389 -395 372 0
-389 -396 373 0
-389 -397 374 0
-389 -398 375 0
-389 -399 376 0
-389 -400 377 0
-389 -401 378 0
-389 -402 379 0
-390 -393 371 0
-390 -394 372 0
-390 -395 373 0
-390 -396 374 0
-390 -397 375 0
-390 -398 376 0
-390 -399 377 0
-390 -400 378 0
-390 -401 379 0
-390 -402 380 0
-391 -393 372 0
-391 -394 373 0
-391 -395 374 0
-391 -396 375 0
-391 -397 376 0
-391 -398 377 0
-391 -399 378 0
-391 -400 379 0
-391 -401 380 0
-391 -402 381 0
-392 -393 373 0
-392 -394 374 0
-392 -395 375 0
-392 -396 376 0
-392 -397 377 0
-392 -398 378 0
-392 -399 379 0
-392 -400 380 0
-392 -401 381 0
-392 -402 382 0
-408 393 0
-409 394 0
-410 395 0
-411 396 0
-412 397 0
-403 393 0
-404 394 0
-405 395 0
-406 396 0
-407 397 0
-403 -408 394 0
-403 -409 395 0
-403 -410 396 0
-403 -411 397 0
-403 -412 398 0
-404 -408 395 0
-404 -409 396 0
-404 -410 397 0
-404 -411 398 0
-404 -412 399 0
-405 -408 396 0
-405 -409 397 0
-405 -410 398 0
-405 -411 399 0
-405 -412 400 0
-406 -408 397 0
-406 -409 398 0
-406 -410 399 0
-406 -411 400 0
-406 -412 401 0
-407 -408 398 0
-407 -409 399 0
-407 -410 400 0
-407 -411 401 0
-407 -412 402 0
-416 408 0
-417 409 0
-413 408 0
-414 409 0
-415 410 0
-413 -416 409 0
-413 -417 410 0
-414 -416 410 0
-414 -417 411 0
-415 -416 411 0
-415 -417 412 0
274 416 0
273 416 0
273 274 417 0
270 413 0
-418 413 0
-419 414 0
-418 270 414 0
-419 270 415 0
269 418 0
266 418 0
266 269 419 0
-423 403 0
-424 404 0
-420 403 0
-421 404 0
-422 405 0
-420 -423 404 0
-420 -424 405 0
-421 -423 405 0
-421 -424 406 0
-422 -423 406 0
-422 -424 407 0
265 423 0
262 423 0
262 265 424 0
261 420 0
-425 420 0
-426 421 0
-425 261 421 0
-426 261 422 0
258 425 0
257 425 0
257 258 426 0
-432 383 0
-433 384 0
-434 385 0
-435 386 0
-436 387 0
-427 383 0
-428 384 0
-429 385 0
-430 386 0
-431 387 0
-427 -432 384 0
-427 -433 385 0
-427 -434 386 0
-427 -435 387 0
-427 -436 388 0
-428 -432 385 0
-428 -433 386 0
-428 -434 387 0
-428 -435 388 0
-428 -436 389 0
-429 -432 386 0
-429 -433 387 0
-429 -434 388 0
-429 -435 389 0
-429 -436 390 0
-430 -432 387 0
-430 -433 388 0
-430 -434 389 0
-430 -435 390 0
-430 -436 391 0
-431 -432 388 0
-431 -433 389 0
-431 -434 390 0
-431 -435 391 0
-431 -436 392 0
-440 432 0
-441 433 0
-437 432 0
-438 433 0
-439 434 0
-437 -440 433 0
-437 -441 434 0
-438 -440 434 0
-438 -441 435 0
-439 -440 435 0
-439 -441 436 0
-272 440 0
-271 440 0
-271 -272 441 0
-268 437 0
-442 437 0
-443 438 0
-442 -268 438 0
-443 -268 439 0
-267 442 0
-264 442 0
-264 -267 443 0
-447 427 0
-448 428 0
-444 427 0
-445 428 0
-446 429 0
-444 -447 428 0
-444 -448 429 0
-445 -447 429 0
-445 -448 430 0
-446 -447 430 0
-446 -448 431 0
-263 447 0
-260 447 0
-260 -263 448 0
-259 444 0
-449 444 0
-450 445 0
-449 -259 445 0
-450 -259 446 0
-256 449 0
-255 449 0
-255 -256 450 0
-372 0
-451 1 0
-451 3 0
451 -1 -3 0
-452 6 0
-452 8 0
452 -6 -8 0
-453 1 0
-453 8 0
453 -1 -8 0
-454 6 0
-454 3 0
454 -6 -3 0
-455 2 0
-455 4 0
455 -2 -4 0
-456 7 0
-456 9 0
456 -7 -9 0
-457 2 0
-457 9 0
457 -2 -9 0
-458 7 0
-458 4 0
458 -7 -4 0
-459 3 0
-459 5 0
459 -3 -5 0
-460 8 0
-460 10 0
460 -8 -10 0
-461 3 0
-461 10 0
461 -3 -10 0
-462 8 0
-462 5 0
462 -8 -5 0
-463 4 0
-463 1 0
463 -4 -1 0
-464 9 0
-464 6 0
464 -9 -6 0
-465 4 0
-465 6 0
465 -4 -6 0
-466 9 0
-466 1 0
466 -9 -1 0
-467 5 0
-467 2 0
467 -5 -2 0
-468 10 0
-468 7 0
468 -10 -7 0
-469 5 0
-469 7 0
469 -5 -7 0
-470 10 0
-470 2 0
470 -10 -2 0
-501 471 0
-502 472 0
-503 473 0
-504 474 0
-505 475 0
-506 476 0
-507 477 0
-508 478 0
-509 479 0
-510 480 0
-491 471 0
-492 472 0
-493 473 0
-494 474 0
-495 475 0
-496 476 0
-497 477 0
-498 478 0
-499 479 0
-500 480 0
-491 -501 472 0
-491 -502 473 0
-491 -503 474 0
-491 -504 475 0
-491 -505 476 0
-491 -506 477 0
-491 -507 478 0
-491 -508 479 0
-491 -509 480 0
-491 -510 481 0
-492 -501 473 0
-492 -502 474 0
-492 -503 475 0
-492 -504 476 0
-492 -505 477 0
-492 -506 478 0
-492 -507 479 0
-492 -508 480 0
-492 -509 481 0
-492 -510 482 0
-493 -501 474 0
-493 -502 475 0
-493 -503 476 0
-493 -504 477 0
-493 -505 478 0
-493 -506 479 0
-493 -507 480 0
-493 -508 481 0
-493 -509 482 0
-493 -510 483 0
-494 -501 475 0
-494 -502 476 0
-494 -503 477 0
-494 -504 478 0
-494 -505 479 0
-494 -506 480 0
-494 -507 481 0
-494 -508 482 0
-494 -509 483 0
-494 -510 484 0
-495 -501 476 0
-495 -502 477 0
-495 -503 478 0
-495 -504 479 0
-495 -505 480 0
-495 -506 481 0
-495 -507 482 0
-495 -508 483 0
-495 -509 484 0
-495 -510 485 0
-496 -501 477 0
-496 -502 478 0
-496 -503 479 0
-496 -504 480 0
-496 -505 481 0
-496 -506 482 0
-496 -507 483 0
-496 -508 484 0
-496 -509 485 0
-496 -510 486 0
-497 -501 478 0
-497 -502 479 0
-497 -503 480 0
-497 -504 481 0
-497 -505 482 0
-497 -506 483 0
-497 -507 484 0
-497 -508 485 0
-497 -509 486 0
-497 -510 487 0
-498 -501 479 0
-498 -502 480 0
-498 -503 481 0
-498 -504 482 0
-498 -505 483 0
-498 -506 484 0
-498 -507 485 0
-498 -508 486 0
-498 -509 487 0
-498 -510 488 0
-499 -501 480 0
-499 -502 481 0
-499 -503 482 0
-499 -504 483 0
-499 -505 484 0
-499 -506 485 0
-499 -507 486 0
-499 -508 487 0
-499 -509 488 0
-499 -510 489 0
-500 -501 481 0
-500 -502 482 0
-500 -503 483 0
-500 -504 484 0
-500 -505 485 0
-500 -506 486 0
-500 -507 487 0
-500 -508 488 0
-500 -509 489 0
-500 -510 490 0
-516 501 0
-517 502 0
-518 503 0
-519 504 0
-520 505 0
-511 501 0
-512 502 0
-513 503 0
-514 504 0
-515 505 0
-511 -516 502 0
-511 -517 503 0
-511 -518 504 0
-511 -519 505 0
-511 -520 506 0
-512 -516 503 0
-512 -517 504 0
-512 -518 505 0
-512 -519 506 0
-512 -520 507 0
-513 -516 504 0
-513 -517 505 0
-513 -518 506 0
-513 -519 507 0
-513 -520 508 0
-514 -516 505 0
-514 -517 506 0
-514 -518 507 0
-514 -519 508 0
-514 -520 509 0
-515 -516 506 0
-515 -517 507 0
-515 -518 508 0
-515 -519 509 0
-515 -520 510 0
-524 516 0
-525 517 0
-521 516 0
-522 517 0
-523 518 0
-521 -524 517 0
-521 -525 518 0
-522 -524 518 0
-522 -525 519 0
-523 -524 519 0
-523 -525 520 0
-470 524 0
-469 524 0
-469 -470 525 0
-466 521 0
-526 521 0
-527 522 0
-526 -466 522 0
-527 -466 523 0
-465 526 0
-462 526 0
-462 -465 527 0
-531 511 0
-532 512 0
-528 511 0
-529 512 0
-530 513 0
-528 -531 512 0
-528 -532 513 0
-529 -531 513 0
-529 -532 514 0
-530 -531 514 0
-530 -532 515 0
-461 531 0
-458 531 0
-458 -461 532 0
-457 528 0
-533 528 0
-534 529 0
-533 -457 529 0
-534 -457 530 0
-454 533 0
-453 533 0
-453 -454 534 0
-540 491 0
-541 492 0
-542 493 0
-543 494 0
-544 495 0
-535 491 0
-536 492 0
-537 493 0
-538 494 0
-539 495 0
-535 -540 492 0
-535 -541 493 0
-535 -542 494 0
-535 -543 495 0
-535 -544 496 0
-536 -540 493 0
-536 -541 494 0
-536 -542 495 0
-536 -543 496 0
-536 -544 497 0
-537 -540 494 0
-537 -541 495 0
-537 -542 496 0
-537 -543 497 0
-537 -544 498 0
-538 -540 495 0
-538 -541 496 0
-538 -542 497 0
-538 -543 498 0
-538 -544 499 0
-539 -540 496 0
-539 -541 497 0
-539 -542 498 0
-539 -543 499 0
-539 -544 500 0
-548 540 0
-549 541 0
-545 540 0
-546 541 0
-547 542 0
-545 -548 541 0
-545 -549 542 0
-546 -548 542 0
-546 -549 543 0
-547 -548 543 0
-547 -549 544 0
468 548 0
467 548 0
467 468 549 0
464 545 0
-550 545 0
-551 546 0
-550 464 546 0
-551 464 547 0
463 550 0
460 550 0
460 463 551 0
-555 535 0
-556 536 0
-552 535 0
-553 536 0
-554 537 0
-552 -555 536 0
-552 -556 537 0
-553 -555 537 0
-553 -556 538 0
-554 -555 538 0
-554 -556 539 0
459 555 0
456 555 0
456 459 556 0
455 552 0
-557 552 0
-558 553 0
-557 455 553 0
-558 455 554 0
452 557 0
451 557 0
451 452 558 0
-482 0
-589 559 0
-590 560 0
-591 561 0
-592 562 0
-593 563 0
-594 564 0
-595 565 0
-596 566 0
-597 567 0
-598 568 0
-579 559 0
-580 560 0
-581 561 0
-582 562 0
-583 563 0
-584 564 0
-585 565 0
-586 566 0
-587 567 0
-588 568 0
-579 -589 560 0
-579 -590 561 0
-579 -591 562 0
-579 -592 563 0
-579 -593 564 0
-579 -594 565 0
-579 -595 566 0
-579 -596 567 0
-579 -597 568 0
-579 -598 569 0
-580 -589 561 0
-580 -590 562 0
-580 -591 563 0
-580 -592 564 0
-580 -593 565 0
-580 -594 566 0
-580 -595 567 0
-580 -596 568 0
-580 -597 569 0
-580 -598 570 0
-581 -589 562 0
-581 -590 563 0
-581 -591 564 0
-581 -592 565 0
-581 -593 566 0
-581 -594 567 0
-581 -595 568 0
-581 -596 569 0
-581 -597 570 0
-581 -598 571 0
-582 -589 563 0
-582 -590 564 0
-582 -591 565 0
-582 -592 566 0
-582 -593 567 0
-582 -594 568 0
-582 -595 569 0
-582 -596 570 0
-582 -597 571 0
-582 -598 572 0
-583 -589 564 0
-583 -590 565 0
-583 -591 566 0
-583 -592 567 0
-583 -593 568 0
-583 -594 569 0
-583 -595 570 0
-583 -596 571 0
-583 -597 572 0
-583 -598 573 0
-584 -589 565 0
-584 -590 566 0
-584 -591 567 0
-584 -592 568 0
-584 -593 569 0
-584 -594 570 0
-584 -595 571 0
-584 -596 572 0
-584 -597 573 0
-584 -598 574 0
-585 -589 566 0
-585 -590 567 0
-585 -591 568 0
-585 -592 569 0
-585 -593 570 0
-585 -594 571 0
-585 -595 572 0
-585 -596 573 0
-585 -597 574 0
-585 -598 575 0
-586 -589 567 0
-586 -590 568 0
-586 -591 569 0
-586 -592 570 0
-586 -593 571 0
-586 -594 572 0
-586 -595 573 0
-586 -596 574 0
-586 -597 575 0
-586 -598 576 0
-587 -589 568 0
-587 -590 569 0
-587 -591 570 0
-587 -592 571 0
-587 -593 572 0
-587 -594 573 0
-587 -595 574 0
-587 -596 575 0
-587 -597 576 0
-587 -598 577 0
-588 -589 569 0
-588 -590 570 0
-588 -591 571 0
-588 -592 572 0
-588 -593 573 0
-588 -594 574 0
-588 -595 575 0
-588 -596 576 0
-588 -597 577 0
-588 -598 578 0
-604 589 0
-605 590 0
-606 591 0
-607 592 0
-608 593 0
-599 589 0
-600 590 0
-601 591 0
-602 592 0
-603 593 0
-599 -604 590 0
-599 -605 591 0
-599 -606 592 0
-599 -607 593 0
-599 -608 594 0
-600 -604 591 0
-600 -605 592 0
-600 -606 593 0
-600 -607 594 0
-600 -608 595 0
-601 -604 592 0
-601 -605 593 0
-601 -606 594 0
-601 -607 595 0
-601 -608 596 0
-602 -604 593 0
-602 -605 594 0
-602 -606 595 0
-602 -607 596 0
-602 -608 597 0
-603 -604 594 0
-603 -605 595 0
-603 -606 596 0
-603 -607 597 0
-603 -608 598 0
-612 604 0
-613 605 0
-609 604 0
-610 605 0
-611 606 0
-609 -612 605 0
-609 -613 606 0
-610 -612 606 0
-610 -613 607 0
-611 -612 607 0
-611 -613 608 0
470 612 0
469 612 0
469 470 613 0
466 609 0
-614 609 0
-615 610 0
-614 466 610 0
-615 466 611 0
465 614 0
462 614 0
462 465 615 0
-619 599 0
-620 600 0
-616 599 0
-617 600 0
-618 601 0
-616 -619 600 0
-616 -620 601 0
-617 -619 601 0
-617 -620 602 0
-618 -619 602 0
-618 -620 603 0
461 619 0
458 619 0
458 461 620 0
457 616 0
-621 616 0
-622 617 0
-621 457 617 0
-622 457 618 0
454 621 0
453 621 0
453 454 622 0
-628 579 0
-629 580 0
-630 581 0
-631 582 0
-632 583 0
-623 579 0
-624 580 0
-625 581 0
-626 582 0
-627 583 0
-623 -628 580 0
-623 -629 581 0
-623 -630 582 0
-623 -631 583 0
-623 -632 584 0
-624 -628 581 0
-624 -629 582 0
-624 -630 583 0
-624 -631 584 0
-624 -632 585 0
-625 -628 582 0
-625 -629 583 0
-625 -630 584 0
-625 -631 585 0
-625 -632 586 0
-626 -628 583 0
-626 -629 584 0
-626 -630 585 0
-626 -631 586 0
-626 -632 587 0
-627 -628 584 0
-627 -629 585 0
-627 -630 586 0
-627 -631 587 0
-627 -632 588 0
-636 628 0
-637 629 0
-633 628 0
-634 629 0
-635 630 0
-633 -636 629 0
-633 -637 630 0
-634 -636 630 0
-634 -637 631 0
-635 -636 631 0
-635 -637 632 0
-468 636 0
-467 636 0
-467 -468 637 0
-464 633 0
-638 633 0
-639 634 0
-638 -464 634 0
-639 -464 635 0
-463 638 0
-460 638 0
-460 -463 639 0
-643 623 0
-644 624 0
-640 623 0
-641 624 0
-642 625 0
-640 -643 624 0
-640 -644 625 0
-641 -643 625 0
-641 -644 626 0
-642 -643 626 0
-642 -644 627 0
-459 643 0
-456 643 0
-456 -459 644 0
-455 640 0
-645 640 0
-646 641 0
-645 -455 641 0
-646 -455 642 0
-452 645 0
-451 645 0
-451 -452 646 0
-568 0
-647 1 0
-647 2 0
647 -1 -2 0
-648 6 0
-648 7 0
648 -6 -7 0
-649 1 0
-649 7 0
649 -1 -7 0
-650 6 0
-650 2 0
650 -6 -2 0
-651 2 0
-651 3 0
651 -2 -3 0
-652 7 0
-652 8 0
652 -7 -8 0
-653 2 0
-653 8 0
653 -2 -8 0
-654 7 0
-654 3 0
654 -7 -3 0
-655 3 0
-655 4 0
655 -3 -4 0
-656 8 0
-656 9 0
656 -8 -9 0
-657 3 0
-657 9 0
657 -3 -9 0
-658 8 0
-658 4 0
658 -8 -4 0
-659 4 0
-659 5 0
659 -4 -5 0
-660 9 0
-660 10 0
660 -9 -10 0
-661 4 0
-661 10 0
661 -4 -10 0
-662 9 0
-662 5 0
662 -9 -5 0
-663 5 0
-663 1 0
663 -5 -1 0
-664 10 0
-664 6 0
664 -10 -6 0
-665 5 0
-665 6 0
665 -5 -6 0
-666 10 0
-666 1 0
666 -10 -1 0
-697 667 0
-698 668 0
-699 669 0
-700 670 0
-701 671 0
-702 672 0
-703 673 0
-704 674 0
-705 675 0
-706 676 0
-687 667 0
-688 668 0
-689 669 0
-690 670 0
-691 671 0
-692 672 0
-693 673 0
-694 674 0
-695 675 0
-696 676 0
-687 -697 668 0
-687 -698 669 0
-687 -699 670 0
-687 -700 671 0
-687 -701 672 0
-687 -702 673 0
-687 -703 674 0
-687 -704 675 0
-687 -705 676 0
-687 -706 677 0
-688 -697 669 0
-688 -698 670 0
-688 -699 671 0
-688 -700 672 0
-688 -701 673 0
-688 -702 674 0
-688 -703 675 0
-688 -704 676 0
-688 -705 677 0
-688 -706 678 0
-689 -697 670 0
-689 -698 671 0
-689 -699 672 0
-689 -700 673 0
-689 -701 674 0
-689 -702 675 0
-689 -703 676 0
-689 -704 677 0
-689 -705 678 0
-689 -706 679 0
-690 -697 671 0
-690 -698 672 0
-690 -699 673 0
-690 -700 674 0
-690 -701 675 0
-690 -702 676 0
-690 -703 677 0
-690 -704 678 0
-690 -705 679 0
-690 -706 680 0
-691 -697 672 0
-691 -698 673 0
-691 -699 674 0
-691 -700 675 0
-691 -701 676 0
-691 -702 677 0
-691 -703 678 0
-691 -704 679 0
-691 -705 680 0
-691 -706 681 0
-692 -697 673 0
-692 -698 674 0
-692 -699 675 0
-692 -700 676 0
-692 -701 677 0
-692 -702 678 0
-692 -703 679 0
-692 -704 680 0
-692 -705 681 0
-692 -706 682 0
-693 -697 674 0
-693 -698 675 0
-693 -699 676 0
-693 -700 677 0
-693 -701 678 0
-693 -702 679 0
-693 -703 680 0
-693 -704 681 0
-693 -705 682 0
-693 -706 683 0
-694 -697 675 0
-694 -698 676 0
-694 -699 677 0
-694 -700 678 0
-694 -701 679 0
-694 -702 680 0
-694 -703 681 0
-694 -704 682 0
-694 -705 683 0
-694 -706 684 0
-695 -697 676 0
-695 -698 677 0
-695 -699 678 0
-695 -700 679 0
-695 -701 680 0
-695 -702 681 0
-695 -703 682 0
-695 -704 683 0
-695 -705 684 0
-695 -706 685 0
-696 -697 677 0
-696 -698 678 0
-696 -699 679 0
-696 -700 680 0
-696 -701 681 0
-696 -702 682 0
-696 -703 683 0
-696 -704 684 0
-696 -705 685 0
-696 -706 686 0
-712 697 0
-713 698 0
-714 699 0
-715 700 0
-716 701 0
-707 697 0
-708 698 0
-709 699 0
-710 700 0
-711 701 0
-707 -712 698 0
-707 -713 699 0
-707 -714 700 0
-707 -715 701 0
-707 -716 702 0
-708 -712 699 0
-708 -713 700 0
-708 -714 701 0
-708 -715 702 0
-708 -716 703 0
-709 -712 700 0
-709 -713 701 0
-709 -714 702 0
-709 -715 703 0
-709 -716 704 0
-710 -712 701 0
-710 -713 702 0
-710 -714 703 0
-710 -715 704 0
-710 -716 705 0
-711 -712 702 0
-711 -713 703 0
-711 -714 704 0
-711 -715 705 0
-711 -716 706 0
-720 712 0
-721 713 0
-717 712 0
-718 713 0
-719 714 0
-717 -720 713 0
-717 -721 714 0
-718 -720 714 0
-718 -721 715 0
-719 -720 715 0
-719 -721 716 0
-666 720 0
-665 720 0
-665 -666 721 0
-662 717 0
-722 717 0
-723 718 0
-722 -662 718 0
-723 -662 719 0
-661 722 0
-658 722 0
-658 -661 723 0
-727 707 0
-728 708 0
-724 707 0
-725 708 0
-726 709 0
-724 -727 708 0
-724 -728 709 0
-725 -727 709 0
-725 -728 710 0
-726 -727 710 0
-726 -728 711 0
-657 727 0
-654 727 0
-654 -657 728 0
-653 724 0
-729 724 0
-730 725 0
-729 -653 725 0
-730 -653 726 0
-650 729 0
-649 729 0
-649 -650 730 0
-736 687 0
-737 688 0
-738 689 0
-739 690 0
-740 691 0
-731 687 0
-732 688 0
-733 689 0
-734 690 0
-735 691 0
-731 -736 688 0
-731 -737 689 0
-731 -738 690 0
-731 -739 691 0
-731 -740 692 0
-732 -736 689 0
-732 -737 690 0
-732 -738 691 0
-732 -739 692 0
-732 -740 693 0
-733 -736 690 0
-733 -737 691 0
-733 -738 692 0
-733 -739 693 0
-733 -740 694 0
-734 -736 691 0
-734 -737 692 0
-734 -738 693 0
-734 -739 694 0
-734 -740 695 0
-735 -736 692 0
-735 -737 693 0
-735 -738 694 0
-735 -739 695 0
-735 -740 696 0
-744 736 0
-745 737 0
-741 736 0
-742 737 0
-743 738 0
-741 -744 737 0
-741 -745 738 0
-742 -744 738 0
-742 -745 739 0
-743 -744 739 0
-743 -745 740 0
664 744 0
663 744 0
663 664 745 0
660 741 0
-746 741 0
-747 742 0
-746 660 742 0
-747 660 743 0
659 746 0
656 746 0
656 659 747 0
-751 731 0
-752 732 0
-748 731 0
-749 732 0
-750 733 0
-748 -751 732 0
-748 -752 733 0
-749 -751 733 0
-749 -752 734 0
-750 -751 734 0
-750 -752 735 0
655 751 0
652 751 0
652 655 752 0
651 748 0
-753 748 0
-754 749 0
-753 651 749 0
-754 651 750 0
648 753 0
647 753 0
647 648 754 0
-678 0
-785 755 0
-786 756 0
-787 757 0
-788 758 0
-789 759 0
-790 760 0
-791 761 0
-792 762 0
-793 763 0
-794 764 0
-775 755 0
-776 756 0
-777 757 0
-778 758 0
-779 759 0
-780 760 0
-781 761 0
-782 762 0
-783 763 0
-784 764 0
-775 -785 756 0
-775 -786 757 0
-775 -787 758 0
-775 -788 759 0
-775 -789 760 0
-775 -790 761 0
-775 -791 762 0
-775 -792 763 0
-775 -793 764 0
-775 -794 765 0
-776 -785 757 0
-776 -786 758 0
-776 -787 759 0
-776 -788 760 0
-776 -789 761 0
-776 -790 762 0
-776 -791 763 0
-776 -792 764 0
-776 -793 765 0
-776 -794 766 0
-777 -785 758 0
-777 -786 759 0
-777 -787 760 0
-777 -788 761 0
-777 -789 762 0
-777 -790 763 0
-777 -791 764 0
-777 -792 765 0
-777 -793 766 0
-777 -794 767 0
-778 -785 759 0
-778 -786 760 0
-778 -787 761 0
-778 -788 762 0
-778 -789 763 0
-778 -790 764 0
-778 -791 765 0
-778 -792 766 0
-778 -793 767 0
-778 -794 768 0
-779 -785 760 0
-779 -786 761 0
-779 -787 762 0
-779 -788 763 0
-779 -789 764 0
-779 -790 765 0
-779 -791 766 0
-779 -792 767 0
-779 -793 768 0
-779 -794 769 0
-780 -785 761 0
-780 -786 762 0
-780 -787 763 0
-780 -788 764 0
-780 -789 765 0
-780 -790 766 0
-780 -791 767 0
-780 -792 768 0
-780 -793 769 0
-780 -794 770 0
-781 -785 762 0
-781 -786 763 0
-781 -787 764 0
-781 -788 765 0
-781 -789 766 0
-781 -790 767 0
-781 -791 768 0
-781 -792 769 0
-781 -793 770 0
-781 -794 771 0
-782 -785 763 0
-782 -786 764 0
-782 -787 765 0
-782 -788 766 0
-782 -789 767 0
-782 -790 768 0
-782 -791 769 0
-782 -792 770 0
-782 -793 771 0
-782 -794 772 0
-783 -785 764 0
-783 -786 765 0
-783 -787 766 0
-783 -788 767 0
-783 -789 768 0
-783 -790 769 0
-783 -791 770 0
-783 -792 771 0
-783 -793 772 0
-783 -794 773 0
-784 -785 765 0
-784 -786 766 0
-784 -787 767 0
-784 -788 768 0
-784 -789 769 0
-784 -790 770 0
-784 -791 771 0
-784 -792 772 0
-784 -793 773 0
-784 -794 774 0
-800 785 0
-801 786 0
-802 787 0
-803 788 0
-804 789 0
-795 785 0
-796 786 0
-797 787 0
-798 788 0
-799 789 0
-795 -800 786 0
-795 -801 787 0
-795 -802 788 0
-795 -803 789 0
-795 -804 790 0
-796 -800 787 0
-796 -801 788 0
-796 -802 789 0
-796 -803 790 0
-796 -804 791 0
-797 -800 788 0
-797 -801 789 0
-797 -802 790 0
-797 -803 791 0
-797 -804 792 0
-798 -800 789 0
-798 -801 790 0
-798 -802 791 0
-798 -803 792 0
-798 -804 793 0
-799 -800 790 0
-799 -801 791 0
-799 -802 792 0
-799 -803 793 0
-799 -804 794 0
-808 800 0
-809 801 0
-805 800 0
-806 801 0
-807 802 0
-805 -808 801 0
-805 -809 802 0
-806 -808 802 0
-806 -809 803 0
-807 -808 803 0
-807 -809 804 0
666 808 0
665 808 0
665 666 809 0
662 805 0
-810 805 0
-811 806 0
-810 662 806 0
-811 662 807 0
661 810 0
658 810 0
658 661 811 0
-815 795 0
-816 796 0
-812 795 0
-813 796 0
-814 797 0
-812 -815 796 0
-812 -816 797 0
-813 -815 797 0
-813 -816 798 0
-814 -815 798 0
-814 -816 799 0
657 815 0
654 815 0
654 657 816 0
653 812 0
-817 812 0
-818 813 0
-817 653 813 0
-818 653 814 0
650 817 0
649 817 0
649 650 818 0
-824 775 0
-825 776 0
-826 777 0
-827 778 0
-828 779 0
-819 775 0
-820 776 0
-821 777 0
-822 778 0
-823 779 0
-819 -824 776 0
-819 -825 777 0
-819 -826 778 0
-819 -827 779 0
-819 -828 780 0
-820 -824 777 0
-820 -825 778 0
-820 -826 779 0
-820 -827 780 0
-820 -828 781 0
-821 -824 778 0
-821 -825 779 0
-821 -826 780 0
-821 -827 781 0
-821 -828 782 0
-822 -824 779 0
-822 -825 780 0
-822 -826 781 0
-822 -827 782 0
-822 -828 783 0
-823 -824 780 0
-823 -825 781 0
-823 -826 782 0
-823 -827 783 0
-823 -828 784 0
-832 824 0
-833 825 0
-829 824 0
-830 825 0
-831 826 0
-829 -832 825 0
-829 -833 826 0
-830 -832 826 0
-830 -833 827 0
-831 -832 827 0
-831 -833 828 0
-664 832 0
-663 832 0
-663 -664 833 0
-660 829 0
-834 829 0
-835 830 0
-834 -660 830 0
-835 -660 831 0
-659 834 0
-656 834 0
-656 -659 835 0
-839 819 0
-840 820 0
-836 819 0
-837 820 0
-838 821 0
-836 -839 820 0
-836 -840 821 0
-837 -839 821 0
-837 -840 822 0
-838 -839 822 0
-838 -840 823 0
-655 839 0
-652 839 0
-652 -655 840 0
-651 836 0
-841 836 0
-842 837 0
-841 -651 837 0
-842 -651 838 0
-648 841 0
-647 841 0
-647 -648 842 0
-764 0
